# vtk DataFile Version 5.1
vtk output
ASCII
DATASET UNSTRUCTURED_GRID
POINTS 1484 float
150 0 0 150 0 25 450 0 0 
450 0 25 150 300 0 150 300 25 
450 300 0 450 300 25 257.574 107.574 0 
342.426 107.574 0 257.574 107.574 25 342.426 107.574 25 
257.574 192.426 0 257.574 192.426 25 360 150 0 
342.426 192.426 0 360 150 25 342.426 192.426 25 
150 0 12.5 450 0 12.5 187.5 0 0 
225 0 0 262.5 0 0 300 0 0 
337.5 0 0 375 0 0 412.5 0 0 
168.75 0 0 206.25 0 0 243.75 0 0 
281.25 0 0 318.75 0 0 356.25 0 0 
393.75 0 0 431.25 0 0 187.5 0 25 
225 0 25 262.5 0 25 300 0 25 
337.5 0 25 375 0 25 412.5 0 25 
168.75 0 25 206.25 0 25 243.75 0 25 
281.25 0 25 318.75 0 25 356.25 0 25 
393.75 0 25 431.25 0 25 150 300 12.5 
150 262.5 0 150 225 0 150 187.5 0 
150 150 0 150 112.5 0 150 75 0 
150 37.5 0 150 281.25 0 150 243.75 0 
150 206.25 0 150 168.75 0 150 131.25 0 
150 93.75 0 150 56.25 0 150 18.75 0 
150 262.5 25 150 225 25 150 187.5 25 
150 150 25 150 112.5 25 150 75 25 
150 37.5 25 150 281.25 25 150 243.75 25 
150 206.25 25 150 168.75 25 150 131.25 25 
150 93.75 25 150 56.25 25 150 18.75 25 
450 300 12.5 450 37.5 0 450 75 0 
450 112.5 0 450 150 0 450 187.5 0 
450 225 0 450 262.5 0 450 18.75 0 
450 56.25 0 450 93.75 0 450 131.25 0 
450 168.75 0 450 206.25 0 450 243.75 0 
450 281.25 0 450 37.5 25 450 75 25 
450 112.5 25 450 150 25 450 187.5 25 
450 225 25 450 262.5 25 450 18.75 25 
450 56.25 25 450 93.75 25 450 131.25 25 
450 168.75 25 450 206.25 25 450 243.75 25 
450 281.25 25 177.804 27.8039 0 205.608 55.6078 0 
233.412 83.4116 0 163.902 13.9019 0 191.706 41.7058 0 
219.51 69.5097 0 245.493 95.4926 0 284.471 92.0444 0 
315.529 92.0444 0 270 98.0385 0 300 90 0 
330 98.0385 0 366.588 83.4116 0 394.392 55.6078 0 
422.196 27.8039 0 354.507 95.4926 0 380.49 69.5097 0 
408.294 41.7058 0 436.098 13.9019 0 177.804 27.8039 25 
205.608 55.6078 25 233.412 83.4116 25 163.902 13.9019 25 
191.706 41.7058 25 219.51 69.5097 25 245.493 95.4926 25 
284.471 92.0444 25 315.529 92.0444 25 270 98.0385 25 
300 90 25 330 98.0385 25 366.588 83.4116 25 
394.392 55.6078 25 422.196 27.8039 25 354.507 95.4926 25 
380.49 69.5097 25 408.294 41.7058 25 436.098 13.9019 25 
412.5 300 0 375 300 0 337.5 300 0 
300 300 0 262.5 300 0 225 300 0 
187.5 300 0 431.25 300 0 393.75 300 0 
356.25 300 0 318.75 300 0 281.25 300 0 
243.75 300 0 206.25 300 0 168.75 300 0 
412.5 300 25 375 300 25 337.5 300 25 
300 300 25 262.5 300 25 225 300 25 
187.5 300 25 431.25 300 25 393.75 300 25 
356.25 300 25 318.75 300 25 281.25 300 25 
243.75 300 25 206.25 300 25 168.75 300 25 
177.804 272.196 0 205.608 244.392 0 233.412 216.588 0 
163.902 286.098 0 191.706 258.294 0 219.51 230.49 0 
245.493 204.507 0 242.044 165.529 0 242.044 134.471 0 
248.038 180 0 240 150 0 248.038 120 0 
177.804 272.196 25 205.608 244.392 25 233.412 216.588 25 
163.902 286.098 25 191.706 258.294 25 219.51 230.49 25 
245.493 204.507 25 242.044 165.529 25 242.044 134.471 25 
248.038 180 25 240 150 25 248.038 120 25 
355.433 127.039 0 349.888 116.666 0 358.847 138.295 0 
355.433 172.961 0 358.847 161.705 0 349.888 183.334 0 
366.588 216.588 0 394.392 244.392 0 422.196 272.196 0 
354.507 204.507 0 380.49 230.49 0 408.294 258.294 0 
436.098 286.098 0 355.433 127.039 25 349.888 116.666 25 
358.847 138.295 25 355.433 172.961 25 358.847 161.705 25 
349.888 183.334 25 366.588 216.588 25 394.392 244.392 25 
422.196 272.196 25 354.507 204.507 25 380.49 230.49 25 
408.294 258.294 25 436.098 286.098 25 342.426 107.574 12.5 
257.574 107.574 12.5 315.529 207.956 0 284.471 207.956 0 
330 201.962 0 300 210 0 270 201.962 0 
315.529 207.956 25 284.471 207.956 25 330 201.962 25 
300 210 25 270 201.962 25 257.574 192.426 12.5 
360 150 12.5 342.426 192.426 12.5 431.25 0 12.5 
393.75 0 12.5 356.25 0 12.5 318.75 0 12.5 
168.75 0 12.5 206.25 0 12.5 243.75 0 12.5 
281.25 0 12.5 159.375 0 6.25 159.375 0 18.75 
178.125 0 6.25 178.125 0 18.75 440.625 0 18.75 
440.625 0 6.25 421.875 0 6.25 421.875 0 18.75 
215.625 0 6.25 196.875 0 6.25 187.5 0 12.5 
196.875 0 18.75 253.125 0 6.25 234.375 0 6.25 
225 0 12.5 215.625 0 18.75 234.375 0 18.75 
290.625 0 6.25 271.875 0 6.25 262.5 0 12.5 
253.125 0 18.75 271.875 0 18.75 328.125 0 6.25 
309.375 0 6.25 300 0 12.5 309.375 0 18.75 
290.625 0 18.75 365.625 0 6.25 346.875 0 6.25 
337.5 0 12.5 346.875 0 18.75 328.125 0 18.75 
403.125 0 6.25 384.375 0 6.25 375 0 12.5 
384.375 0 18.75 365.625 0 18.75 412.5 0 12.5 
403.125 0 18.75 150 18.75 12.5 150 93.75 12.5 
150 56.25 12.5 150 131.25 12.5 150 281.25 12.5 
150 243.75 12.5 150 206.25 12.5 150 168.75 12.5 
150 9.375 18.75 150 9.375 6.25 150 28.125 6.25 
150 28.125 18.75 150 290.625 6.25 150 290.625 18.75 
150 271.875 6.25 150 271.875 18.75 150 234.375 6.25 
150 253.125 6.25 150 262.5 12.5 150 253.125 18.75 
150 196.875 6.25 150 215.625 6.25 150 225 12.5 
150 234.375 18.75 150 215.625 18.75 150 159.375 6.25 
150 178.125 6.25 150 187.5 12.5 150 196.875 18.75 
150 178.125 18.75 150 121.875 6.25 150 140.625 6.25 
150 150 12.5 150 140.625 18.75 150 159.375 18.75 
150 84.375 6.25 150 103.125 6.25 150 112.5 12.5 
150 103.125 18.75 150 121.875 18.75 150 46.875 6.25 
150 65.625 6.25 150 75 12.5 150 84.375 18.75 
150 65.625 18.75 150 37.5 12.5 150 46.875 18.75 
450 281.25 12.5 450 206.25 12.5 450 243.75 12.5 
450 168.75 12.5 450 18.75 12.5 450 93.75 12.5 
450 56.25 12.5 450 131.25 12.5 450 9.375 6.25 
450 9.375 18.75 450 28.125 6.25 450 28.125 18.75 
450 290.625 18.75 450 290.625 6.25 450 271.875 6.25 
450 271.875 18.75 450 46.875 18.75 450 65.625 18.75 
450 37.5 12.5 450 46.875 6.25 450 84.375 18.75 
450 103.125 18.75 450 75 12.5 450 84.375 6.25 
450 65.625 6.25 450 121.875 18.75 450 140.625 18.75 
450 112.5 12.5 450 103.125 6.25 450 121.875 6.25 
450 159.375 18.75 450 178.125 18.75 450 150 12.5 
450 159.375 6.25 450 140.625 6.25 450 196.875 18.75 
450 215.625 18.75 450 187.5 12.5 450 196.875 6.25 
450 178.125 6.25 450 234.375 18.75 450 253.125 18.75 
450 225 12.5 450 215.625 6.25 450 234.375 6.25 
450 262.5 12.5 450 253.125 6.25 300 47.3322 0 
343.124 42.6926 0 256.876 42.6926 0 394.059 21.9744 0 
205.941 21.9744 0 333.66 71.7733 0 266.34 71.7733 0 
318.615 24.815 0 281.263 24.7834 0 300 74.9935 0 
366.204 26.4602 0 233.796 26.4602 0 362.84 56.2703 0 
237.16 56.2703 0 182.652 13.9019 0 417.348 13.9019 0 
275.405 81.9089 0 261.957 89.6734 0 249.876 77.5925 0 
338.043 89.6734 0 324.595 81.9089 0 350.124 77.5925 0 
196.721 10.9872 0 215.471 10.9872 0 191.873 24.8891 0 
229.398 13.2301 0 248.148 13.2301 0 219.869 24.2173 0 
271.881 12.3917 0 290.631 12.3917 0 259.688 21.3463 0 
269.07 33.738 0 245.336 34.5764 0 309.307 12.4075 0 
328.057 12.4075 0 299.939 24.7992 0 351.852 13.2301 0 
370.602 13.2301 0 340.312 21.3463 0 330.869 33.7538 0 
354.664 34.5764 0 384.529 10.9872 0 403.279 10.9872 0 
380.131 24.2173 0 408.127 24.8891 0 307.765 83.519 0 
292.235 83.519 0 283.17 73.3834 0 316.83 73.3834 0 
205.775 38.7911 0 235.286 69.841 0 221.384 55.9391 0 
219.702 41.034 0 235.478 41.3653 0 251.75 64.0218 0 
378.616 55.9391 0 364.714 69.841 0 348.25 64.0218 0 
394.225 38.7911 0 380.298 41.034 0 364.522 41.3653 0 
321.562 45.0124 0 316.83 59.5527 0 338.392 57.2329 0 
309.307 36.0736 0 278.438 45.0124 0 261.608 57.2329 0 
283.17 59.5527 0 290.631 36.0578 0 300 61.1629 0 
352.982 49.4815 0 247.018 49.4815 0 300 47.3322 25 
343.124 42.6926 25 256.876 42.6926 25 394.059 21.9744 25 
205.941 21.9744 25 333.66 71.7733 25 266.34 71.7733 25 
318.615 24.815 25 281.263 24.7834 25 300 74.9935 25 
366.204 26.4602 25 233.796 26.4602 25 362.84 56.2703 25 
237.16 56.2703 25 182.652 13.9019 25 417.348 13.9019 25 
261.957 89.6734 25 275.405 81.9089 25 249.876 77.5925 25 
324.595 81.9089 25 338.043 89.6734 25 350.124 77.5925 25 
215.471 10.9872 25 196.721 10.9872 25 191.873 24.8891 25 
248.148 13.2301 25 229.398 13.2301 25 219.869 24.2173 25 
290.631 12.3917 25 271.881 12.3917 25 269.07 33.738 25 
259.688 21.3463 25 245.336 34.5764 25 328.057 12.4075 25 
309.307 12.4075 25 299.939 24.7992 25 370.602 13.2301 25 
351.852 13.2301 25 330.869 33.7538 25 340.312 21.3463 25 
354.664 34.5764 25 403.279 10.9872 25 384.529 10.9872 25 
380.131 24.2173 25 408.127 24.8891 25 292.235 83.519 25 
307.765 83.519 25 283.17 73.3834 25 316.83 73.3834 25 
205.775 38.7911 25 221.384 55.9391 25 235.286 69.841 25 
219.702 41.034 25 235.478 41.3653 25 251.75 64.0218 25 
364.714 69.841 25 378.616 55.9391 25 348.25 64.0218 25 
394.225 38.7911 25 380.298 41.034 25 364.522 41.3653 25 
338.392 57.2329 25 316.83 59.5527 25 321.562 45.0124 25 
309.307 36.0736 25 283.17 59.5527 25 261.608 57.2329 25 
278.438 45.0124 25 290.631 36.0578 25 300 61.1629 25 
352.982 49.4815 25 247.018 49.4815 25 168.75 300 12.5 
243.75 300 12.5 206.25 300 12.5 281.25 300 12.5 
431.25 300 12.5 393.75 300 12.5 356.25 300 12.5 
318.75 300 12.5 159.375 300 18.75 159.375 300 6.25 
178.125 300 6.25 178.125 300 18.75 440.625 300 6.25 
440.625 300 18.75 421.875 300 6.25 421.875 300 18.75 
384.375 300 6.25 403.125 300 6.25 412.5 300 12.5 
403.125 300 18.75 346.875 300 6.25 365.625 300 6.25 
375 300 12.5 384.375 300 18.75 365.625 300 18.75 
309.375 300 6.25 328.125 300 6.25 337.5 300 12.5 
346.875 300 18.75 328.125 300 18.75 271.875 300 6.25 
290.625 300 6.25 300 300 12.5 290.625 300 18.75 
309.375 300 18.75 234.375 300 6.25 253.125 300 6.25 
262.5 300 12.5 253.125 300 18.75 271.875 300 18.75 
196.875 300 6.25 215.625 300 6.25 225 300 12.5 
234.375 300 18.75 215.625 300 18.75 187.5 300 12.5 
196.875 300 18.75 197.332 150 0 192.693 193.124 0 
192.693 106.876 0 171.974 55.9415 0 171.974 244.059 0 
221.773 116.34 0 221.773 183.66 0 174.815 168.615 0 
174.783 131.263 0 224.994 150 0 176.46 216.204 0 
176.46 83.7957 0 206.27 212.84 0 206.27 87.1604 0 
163.902 32.6519 0 163.902 267.348 0 227.592 99.8757 0 
239.673 111.957 0 231.909 125.405 0 231.909 174.595 0 
239.673 188.043 0 227.592 200.124 0 160.987 253.279 0 
160.987 234.529 0 174.889 258.127 0 163.23 220.602 0 
163.23 201.852 0 174.217 230.131 0 162.408 178.057 0 
162.408 159.307 0 171.346 190.312 0 183.754 180.869 0 
184.576 204.664 0 162.392 140.631 0 162.392 121.881 0 
174.799 149.939 0 163.23 98.1479 0 163.23 79.3979 0 
171.346 109.688 0 183.738 119.07 0 184.576 95.336 0 
160.987 65.4707 0 160.987 46.7207 0 174.217 69.8686 0 
174.889 41.8727 0 188.791 55.7746 0 205.939 71.3841 0 
219.841 85.286 0 191.034 69.7017 0 191.365 85.4781 0 
214.022 101.75 0 233.519 142.235 0 233.519 157.765 0 
223.383 166.83 0 223.383 133.17 0 188.791 244.225 0 
219.841 214.714 0 205.939 228.616 0 191.034 230.298 0 
191.365 214.522 0 214.022 198.25 0 195.012 171.562 0 
207.233 188.392 0 209.553 166.83 0 186.074 159.307 0 
195.012 128.438 0 209.553 133.17 0 207.233 111.608 0 
186.058 140.631 0 211.163 150 0 199.481 202.982 0 
199.481 97.0183 0 197.332 150 25 192.693 193.124 25 
192.693 106.876 25 171.974 55.9415 25 171.974 244.059 25 
221.773 116.34 25 221.773 183.66 25 174.815 168.615 25 
174.783 131.263 25 224.994 150 25 176.46 216.204 25 
176.46 83.7957 25 206.27 212.84 25 206.27 87.1604 25 
163.902 32.6519 25 163.902 267.348 25 239.673 111.957 25 
227.592 99.8757 25 231.909 125.405 25 239.673 188.043 25 
231.909 174.595 25 227.592 200.124 25 160.987 234.529 25 
160.987 253.279 25 174.889 258.127 25 163.23 201.852 25 
163.23 220.602 25 174.217 230.131 25 162.408 159.307 25 
162.408 178.057 25 183.754 180.869 25 171.346 190.312 25 
184.576 204.664 25 162.392 121.881 25 162.392 140.631 25 
174.799 149.939 25 163.23 79.3979 25 163.23 98.1479 25 
183.738 119.07 25 171.346 109.688 25 184.576 95.336 25 
160.987 46.7207 25 160.987 65.4707 25 174.217 69.8686 25 
174.889 41.8727 25 188.791 55.7746 25 219.841 85.286 25 
205.939 71.3841 25 191.034 69.7017 25 191.365 85.4781 25 
214.022 101.75 25 233.519 157.765 25 233.519 142.235 25 
223.383 166.83 25 223.383 133.17 25 188.791 244.225 25 
205.939 228.616 25 219.841 214.714 25 191.034 230.298 25 
191.365 214.522 25 214.022 198.25 25 209.553 166.83 25 
207.233 188.392 25 195.012 171.562 25 186.074 159.307 25 
207.233 111.608 25 209.553 133.17 25 195.012 128.438 25 
186.058 140.631 25 211.163 150 25 199.481 202.982 25 
199.481 97.0183 25 403.015 127.665 0 395.896 169.075 0 
413.426 206.25 0 415.729 94.3614 0 380.628 110.242 0 
377.54 190.548 0 375.752 133.83 0 415.648 150.726 0 
426.003 242.068 0 426.464 58.0546 0 375.821 162.796 0 
422.669 176.434 0 428.483 128.133 0 362.49 110.175 0 
394.576 148.04 0 389.224 212.308 0 389.776 88.366 0 
436.098 32.6519 0 436.098 267.348 0 352.458 108.874 0 
364.539 96.7932 0 358.961 118.607 0 365.627 167.878 0 
367.911 156.398 0 367.876 141.915 0 365.592 130.434 0 
375.786 148.313 0 359.983 191.487 0 366.487 181.755 0 
372.064 203.568 0 438.232 47.7773 0 438.232 66.5273 0 
424.33 42.9292 0 432.865 84.6807 0 432.865 103.431 0 
421.096 76.208 0 439.241 120.316 0 439.241 139.066 0 
422.106 111.247 0 436.334 163.217 0 436.334 181.967 0 
432.824 150.363 0 419.158 163.58 0 422.065 139.429 0 
431.713 196.875 0 431.713 215.625 0 418.047 191.342 0 
438.001 233.534 0 438.001 252.284 0 419.714 224.159 0 
424.099 257.132 0 378.182 85.8888 0 392.084 71.9869 0 
373.608 96.8266 0 371.559 110.208 0 385.202 99.3038 0 
410.428 56.8312 0 405.061 74.9846 0 402.753 91.3637 0 
376.681 176.672 0 369.121 122.002 0 391.808 228.35 0 
377.906 214.448 0 383.382 201.428 0 410.198 243.23 0 
403.909 225.321 0 401.325 209.279 0 409.372 111.013 0 
398.179 102.301 0 391.821 118.954 0 415.749 127.899 0 
378.19 122.036 0 389.383 130.748 0 385.164 140.935 0 
398.795 137.853 0 409.331 139.196 0 405.112 149.383 0 
404.661 187.663 0 386.718 179.812 0 395.483 198.399 0 
409.283 172.755 0 385.859 165.935 0 405.772 159.9 0 
395.236 158.557 0 385.199 155.418 0 403.015 127.665 25 
395.896 169.075 25 413.426 206.25 25 415.729 94.3614 25 
380.628 110.242 25 377.54 190.548 25 375.752 133.83 25 
415.648 150.726 25 426.003 242.068 25 426.464 58.0546 25 
375.821 162.796 25 422.669 176.434 25 428.483 128.133 25 
362.49 110.175 25 394.576 148.04 25 389.224 212.308 25 
389.776 88.366 25 436.098 32.6519 25 436.098 267.348 25 
364.539 96.7932 25 352.458 108.874 25 358.961 118.607 25 
367.911 156.398 25 365.627 167.878 25 365.592 130.434 25 
367.876 141.915 25 375.786 148.313 25 366.487 181.755 25 
359.983 191.487 25 372.064 203.568 25 438.232 66.5273 25 
438.232 47.7773 25 424.33 42.9292 25 432.865 103.431 25 
432.865 84.6807 25 421.096 76.208 25 439.241 139.066 25 
439.241 120.316 25 422.106 111.247 25 436.334 181.967 25 
436.334 163.217 25 419.158 163.58 25 432.824 150.363 25 
422.065 139.429 25 431.713 215.625 25 431.713 196.875 25 
418.047 191.342 25 438.001 252.284 25 438.001 233.534 25 
419.714 224.159 25 424.099 257.132 25 392.084 71.9869 25 
378.182 85.8888 25 371.559 110.208 25 373.608 96.8266 25 
385.202 99.3038 25 410.428 56.8312 25 405.061 74.9846 25 
402.753 91.3637 25 376.681 176.672 25 369.121 122.002 25 
377.906 214.448 25 391.808 228.35 25 383.382 201.428 25 
410.198 243.23 25 403.909 225.321 25 401.325 209.279 25 
391.821 118.954 25 398.179 102.301 25 409.372 111.013 25 
415.749 127.899 25 389.383 130.748 25 378.19 122.036 25 
398.795 137.853 25 385.164 140.935 25 409.331 139.196 25 
405.112 149.383 25 395.483 198.399 25 386.718 179.812 25 
404.661 187.663 25 409.283 172.755 25 385.859 165.935 25 
405.772 159.9 25 395.236 158.557 25 385.199 155.418 25 
270 98.0385 12.5 330 98.0385 12.5 315.529 92.0444 12.5 
284.471 92.0444 12.5 300 90 12.5 300 252.668 0 
343.124 257.307 0 256.876 257.307 0 394.059 278.026 0 
205.941 278.026 0 333.66 228.227 0 266.34 228.227 0 
318.615 275.185 0 281.263 275.217 0 300 225.006 0 
366.204 273.54 0 233.796 273.54 0 362.84 243.73 0 
237.16 243.73 0 182.652 286.098 0 417.348 286.098 0 
261.957 210.327 0 275.405 218.091 0 249.876 222.408 0 
324.595 218.091 0 338.043 210.327 0 350.124 222.408 0 
403.279 289.013 0 384.529 289.013 0 408.127 275.111 0 
370.602 286.77 0 351.852 286.77 0 380.131 275.783 0 
328.057 287.592 0 309.307 287.592 0 340.312 278.654 0 
330.869 266.246 0 354.664 265.424 0 290.631 287.608 0 
271.881 287.608 0 299.939 275.201 0 248.148 286.77 0 
229.398 286.77 0 259.688 278.654 0 269.07 266.262 0 
245.336 265.424 0 215.471 289.013 0 196.721 289.013 0 
219.869 275.783 0 191.873 275.111 0 292.235 216.481 0 
307.765 216.481 0 316.83 226.617 0 283.17 226.617 0 
205.775 261.209 0 221.384 244.061 0 235.286 230.159 0 
219.702 258.966 0 235.478 258.635 0 251.75 235.978 0 
364.714 230.159 0 378.616 244.061 0 348.25 235.978 0 
394.225 261.209 0 380.298 258.966 0 364.522 258.635 0 
321.562 254.988 0 338.392 242.767 0 316.83 240.447 0 
309.307 263.926 0 278.438 254.988 0 283.17 240.447 0 
261.608 242.767 0 290.631 263.942 0 300 238.837 0 
352.982 250.519 0 247.018 250.519 0 300 252.668 25 
343.124 257.307 25 256.876 257.307 25 394.059 278.026 25 
205.941 278.026 25 333.66 228.227 25 266.34 228.227 25 
318.615 275.185 25 281.263 275.217 25 300 225.006 25 
366.204 273.54 25 233.796 273.54 25 362.84 243.73 25 
237.16 243.73 25 182.652 286.098 25 417.348 286.098 25 
275.405 218.091 25 261.957 210.327 25 249.876 222.408 25 
338.043 210.327 25 324.595 218.091 25 350.124 222.408 25 
384.529 289.013 25 403.279 289.013 25 408.127 275.111 25 
351.852 286.77 25 370.602 286.77 25 380.131 275.783 25 
309.307 287.592 25 328.057 287.592 25 330.869 266.246 25 
340.312 278.654 25 354.664 265.424 25 271.881 287.608 25 
290.631 287.608 25 299.939 275.201 25 229.398 286.77 25 
248.148 286.77 25 269.07 266.262 25 259.688 278.654 25 
245.336 265.424 25 196.721 289.013 25 215.471 289.013 25 
219.869 275.783 25 191.873 275.111 25 307.765 216.481 25 
292.235 216.481 25 316.83 226.617 25 283.17 226.617 25 
205.775 261.209 25 235.286 230.159 25 221.384 244.061 25 
219.702 258.966 25 235.478 258.635 25 251.75 235.978 25 
378.616 244.061 25 364.714 230.159 25 348.25 235.978 25 
394.225 261.209 25 380.298 258.966 25 364.522 258.635 25 
316.83 240.447 25 338.392 242.767 25 321.562 254.988 25 
309.307 263.926 25 261.608 242.767 25 283.17 240.447 25 
278.438 254.988 25 290.631 263.942 25 300 238.837 25 
352.982 250.519 25 247.018 250.519 25 248.038 120 12.5 
242.044 134.471 12.5 248.038 180 12.5 242.044 165.529 12.5 
240 150 12.5 349.888 116.666 12.5 358.847 138.295 12.5 
346.381 111.936 6.25 346.381 111.936 18.75 352.915 121.716 6.25 
352.915 121.716 18.75 359.711 144.119 6.25 359.711 144.119 18.75 
357.416 132.583 6.25 357.416 132.583 18.75 355.433 127.039 12.5 
358.847 161.705 12.5 349.888 183.334 12.5 359.711 155.881 18.75 
359.711 155.881 6.25 357.416 167.417 6.25 346.381 188.064 6.25 
346.381 188.064 18.75 352.915 178.284 6.25 357.416 167.417 18.75 
352.915 178.284 18.75 355.433 172.961 12.5 270 201.962 12.5 
284.471 207.956 12.5 330 201.962 12.5 315.529 207.956 12.5 
300 210 12.5 358.961 118.607 12.5 360.668 124.235 6.25 
367.911 156.398 12.5 367.334 150.545 18.75 367.299 136.062 6.25 
356.189 113.42 6.25 367.299 136.062 18.75 367.334 150.545 6.25 
367.334 162.25 18.75 385.199 155.418 12.5 385.164 140.935 12.5 
394.576 148.04 12.5 356.189 113.42 18.75 352.458 108.874 12.5 
362.49 110.175 12.5 375.821 162.796 12.5 375.752 133.83 12.5 
375.786 148.313 12.5 369.121 122.002 12.5 367.334 162.25 6.25 
366.487 181.755 12.5 368.194 176.127 6.25 376.681 176.672 12.5 
398.795 137.853 12.5 363.714 186.941 6.25 368.194 176.127 18.75 
432.824 159.738 18.75 432.824 159.738 6.25 415.648 150.726 12.5 
432.824 150.363 12.5 436.334 172.592 6.25 419.158 163.58 12.5 
431.713 215.625 12.5 431.713 206.25 6.25 361.227 286.77 18.75 
361.227 286.77 6.25 366.204 273.54 12.5 354.664 265.424 12.5 
349.687 278.654 6.25 163.23 211.227 6.25 171.346 199.687 6.25 
184.576 204.664 12.5 163.23 211.227 18.75 176.46 216.204 12.5 
349.687 21.3463 18.75 361.227 13.2301 18.75 361.227 13.2301 6.25 
366.204 26.4602 12.5 354.664 34.5764 12.5 245.336 34.5764 12.5 
250.313 21.3463 6.25 238.773 13.2301 18.75 233.796 26.4602 12.5 
238.773 13.2301 6.25 184.576 95.336 12.5 171.346 100.313 18.75 
163.23 88.7729 6.25 176.46 83.7957 12.5 163.23 88.7729 18.75 
238.773 286.77 6.25 250.313 278.654 6.25 238.773 286.77 18.75 
245.336 265.424 12.5 233.796 273.54 12.5 431.713 206.25 18.75 
436.334 191.342 18.75 418.047 191.342 12.5 422.669 176.434 12.5 
436.334 191.342 6.25 391.808 228.35 12.5 389.224 212.308 12.5 
401.325 209.279 12.5 389.776 88.366 12.5 402.753 91.3637 12.5 
405.061 74.9846 12.5 392.084 71.9869 12.5 413.426 206.25 12.5 
171.346 199.687 18.75 171.346 190.312 12.5 349.687 278.654 18.75 
340.312 278.654 12.5 259.688 21.3463 12.5 340.312 21.3463 12.5 
171.346 109.688 12.5 259.688 278.654 12.5 192.693 193.124 12.5 
250.313 21.3463 18.75 256.876 42.6926 12.5 343.124 257.307 12.5 
192.693 106.876 12.5 171.346 100.313 6.25 349.687 21.3463 6.25 
343.124 42.6926 12.5 256.876 257.307 12.5 250.313 278.654 18.75 
432.865 94.0557 18.75 432.865 84.6807 12.5 221.384 244.061 12.5 
235.478 258.635 12.5 237.16 243.73 12.5 206.27 87.1604 12.5 
191.365 85.4781 12.5 205.939 71.3841 12.5 235.478 41.3653 12.5 
221.384 55.9391 12.5 237.16 56.2703 12.5 191.034 230.298 12.5 
205.939 228.616 12.5 206.27 212.84 12.5 191.365 214.522 12.5 
432.865 94.0557 6.25 432.865 103.431 12.5 389.383 130.748 12.5 
364.539 96.7932 12.5 171.974 55.9415 12.5 174.217 69.8686 12.5 
191.034 69.7017 12.5 188.791 55.7746 12.5 188.791 244.225 12.5 
171.974 244.059 12.5 174.217 230.131 12.5 205.775 261.209 12.5 
205.941 278.026 12.5 219.869 275.783 12.5 219.702 258.966 12.5 
205.941 21.9744 12.5 205.775 38.7911 12.5 219.869 24.2173 12.5 
383.382 201.428 12.5 436.334 172.592 18.75 436.334 181.967 12.5 
439.241 129.691 18.75 428.483 128.133 12.5 439.241 129.691 6.25 
439.241 139.066 12.5 174.889 41.8727 12.5 191.706 41.7058 12.5 
174.889 258.127 12.5 191.873 275.111 12.5 191.873 24.8891 12.5 
378.616 244.061 12.5 364.522 258.635 12.5 362.84 243.73 12.5 
219.51 230.49 12.5 235.286 230.159 12.5 235.286 69.841 12.5 
219.51 69.5097 12.5 219.841 85.286 12.5 219.841 214.714 12.5 
173.277 286.098 18.75 163.902 23.2769 6.25 163.902 23.2769 18.75 
173.277 286.098 6.25 436.098 276.723 18.75 173.277 13.9019 18.75 
163.902 276.723 6.25 163.902 276.723 18.75 173.277 13.9019 6.25 
426.723 13.9019 6.25 436.098 276.723 6.25 426.723 13.9019 18.75 
436.098 23.2769 6.25 436.098 23.2769 18.75 426.723 286.098 18.75 
426.723 286.098 6.25 358.238 199.961 18.75 358.238 199.961 6.25 
366.588 216.588 12.5 354.507 204.507 12.5 394.225 261.209 12.5 
380.298 258.966 12.5 380.131 275.783 12.5 394.059 278.026 12.5 
300 61.1629 12.5 316.83 73.3834 12.5 300 74.9935 12.5 
223.383 166.83 12.5 209.553 166.83 12.5 224.994 150 12.5 
211.163 150 12.5 223.383 133.17 12.5 300 238.837 12.5 
300 225.006 12.5 316.83 226.617 12.5 283.17 73.3834 12.5 
283.17 226.617 12.5 159.375 290.625 12.5 159.375 9.375 12.5 
440.625 290.625 12.5 440.625 9.375 12.5 378.616 55.9391 12.5 
362.84 56.2703 12.5 364.522 41.3653 12.5 415.729 94.3614 12.5 
408.127 275.111 12.5 377.906 214.448 12.5 380.49 230.49 12.5 
364.714 230.159 12.5 394.225 38.7911 12.5 380.131 24.2173 12.5 
394.059 21.9744 12.5 410.198 243.23 12.5 426.003 242.068 12.5 
419.714 224.159 12.5 410.428 56.8312 12.5 421.096 76.208 12.5 
426.464 58.0546 12.5 377.54 190.548 12.5 384.529 10.9872 12.5 
393.904 10.9872 18.75 393.904 10.9872 6.25 160.987 56.0957 6.25 
160.987 56.0957 18.75 160.987 65.4707 12.5 206.096 289.013 6.25 
206.096 289.013 18.75 215.471 289.013 12.5 393.904 289.013 18.75 
393.904 289.013 6.25 384.529 289.013 12.5 160.987 243.904 6.25 
160.987 243.904 18.75 160.987 234.529 12.5 206.096 10.9872 18.75 
206.096 10.9872 6.25 215.471 10.9872 12.5 372.064 203.568 12.5 
363.714 186.941 18.75 405.112 149.383 12.5 408.127 24.8891 12.5 
408.294 41.7058 12.5 380.49 69.5097 12.5 364.714 69.841 12.5 
438.001 252.284 12.5 438.001 242.909 6.25 438.232 57.1523 6.25 
438.232 47.7773 12.5 378.182 85.8888 12.5 398.179 102.301 12.5 
385.202 99.3038 12.5 438.001 242.909 18.75 438.232 57.1523 18.75 
318.615 275.185 12.5 309.307 263.926 12.5 330.869 266.246 12.5 
309.307 36.0736 12.5 318.615 24.815 12.5 330.869 33.7538 12.5 
183.754 180.869 12.5 186.074 159.307 12.5 174.815 168.615 12.5 
183.738 119.07 12.5 186.058 140.631 12.5 174.783 131.263 12.5 
290.631 36.0578 12.5 281.263 24.7834 12.5 269.07 33.738 12.5 
269.07 266.262 12.5 281.263 275.217 12.5 290.631 263.942 12.5 
278.438 254.988 12.5 438.001 233.534 12.5 403.279 289.013 12.5 
160.987 253.279 12.5 196.721 10.9872 12.5 403.279 10.9872 12.5 
160.987 46.7207 12.5 196.721 289.013 12.5 191.706 258.294 12.5 
177.804 272.196 12.5 177.804 27.8039 12.5 205.608 244.392 12.5 
219.702 41.034 12.5 205.608 55.6078 12.5 395.483 198.399 12.5 
328.057 12.4075 12.5 328.057 287.592 12.5 162.408 178.057 12.5 
271.881 287.608 12.5 271.881 12.3917 12.5 162.392 121.881 12.5 
290.631 12.3917 12.5 299.939 24.7992 12.5 309.307 12.4075 12.5 
290.631 287.608 12.5 309.307 287.592 12.5 299.939 275.201 12.5 
174.799 149.939 12.5 162.392 140.631 12.5 162.408 159.307 12.5 
403.909 225.321 12.5 394.392 244.392 12.5 409.372 111.013 12.5 
403.015 127.665 12.5 391.821 118.954 12.5 233.412 216.588 12.5 
233.412 83.4116 12.5 394.392 55.6078 12.5 386.718 179.812 12.5 
404.661 187.663 12.5 371.559 110.208 12.5 261.608 242.767 12.5 
283.17 240.447 12.5 266.34 228.227 12.5 261.608 57.2329 12.5 
283.17 59.5527 12.5 266.34 71.7733 12.5 209.553 133.17 12.5 
207.233 111.608 12.5 221.773 116.34 12.5 207.233 188.392 12.5 
221.773 183.66 12.5 316.83 59.5527 12.5 338.392 57.2329 12.5 
333.66 71.7733 12.5 316.83 240.447 12.5 333.66 228.227 12.5 
338.392 242.767 12.5 321.562 254.988 12.5 281.256 287.608 6.25 
281.256 287.608 18.75 162.392 131.256 6.25 162.392 131.256 18.75 
281.256 12.3917 6.25 281.256 12.3917 18.75 408.294 258.294 12.5 
422.196 272.196 12.5 318.682 12.4075 18.75 318.682 12.4075 6.25 
162.408 168.682 18.75 162.408 168.682 6.25 318.682 287.592 18.75 
318.682 287.592 6.25 422.065 139.429 12.5 438.232 66.5273 12.5 
439.241 120.316 12.5 422.106 111.247 12.5 214.022 198.25 12.5 
214.022 101.75 12.5 227.592 99.8757 12.5 249.876 222.408 12.5 
251.75 235.978 12.5 251.75 64.0218 12.5 350.124 77.5925 12.5 
348.25 64.0218 12.5 348.25 235.978 12.5 350.124 222.408 12.5 
261.957 89.6734 12.5 245.493 95.4926 12.5 354.507 95.4926 12.5 
338.043 89.6734 12.5 338.043 210.327 12.5 239.673 111.957 12.5 
395.236 158.557 12.5 395.896 169.075 12.5 195.012 128.438 12.5 
278.438 45.0124 12.5 197.332 150 12.5 195.012 171.562 12.5 
300 47.3322 12.5 321.562 45.0124 12.5 300 252.668 12.5 
380.298 41.034 12.5 422.196 27.8039 12.5 378.19 122.036 12.5 
380.628 110.242 12.5 415.749 127.899 12.5 409.283 172.755 12.5 
307.765 216.481 12.5 366.588 83.4116 12.5 424.099 257.132 12.5 
245.493 204.507 12.5 249.876 77.5925 12.5 227.592 200.124 12.5 
261.957 210.327 12.5 239.673 188.043 12.5 424.33 42.9292 12.5 
275.405 81.9089 12.5 231.909 174.595 12.5 324.595 81.9089 12.5 
324.595 218.091 12.5 385.859 165.935 12.5 163.902 267.348 12.5 
163.902 32.6519 12.5 182.652 286.098 12.5 292.235 216.481 12.5 
409.331 139.196 12.5 233.519 157.765 12.5 307.765 83.519 12.5 
292.235 83.519 12.5 231.909 125.405 12.5 163.23 220.602 12.5 
436.098 267.348 12.5 436.098 32.6519 12.5 233.519 142.235 12.5 
182.652 13.9019 12.5 417.348 286.098 12.5 417.348 13.9019 12.5 
247.018 250.519 12.5 247.018 49.4815 12.5 199.481 97.0183 12.5 
199.481 202.982 12.5 352.982 49.4815 12.5 352.982 250.519 12.5 
275.405 218.091 12.5 405.772 159.9 12.5 370.602 286.77 12.5 
370.602 13.2301 12.5 229.398 13.2301 12.5 163.23 79.3979 12.5 
229.398 286.77 12.5 373.608 96.8266 12.5 
CELLS 681 6800
OFFSETS vtktypeint64
0 10 20 30 40 50 60 70 80 
90 100 110 120 130 140 150 160 170 
180 190 200 210 220 230 240 250 260 
270 280 290 300 310 320 330 340 350 
360 370 380 390 400 410 420 430 440 
450 460 470 480 490 500 510 520 530 
540 550 560 570 580 590 600 610 620 
630 640 650 660 670 680 690 700 710 
720 730 740 750 760 770 780 790 800 
810 820 830 840 850 860 870 880 890 
900 910 920 930 940 950 960 970 980 
990 1000 1010 1020 1030 1040 1050 1060 1070 
1080 1090 1100 1110 1120 1130 1140 1150 1160 
1170 1180 1190 1200 1210 1220 1230 1240 1250 
1260 1270 1280 1290 1300 1310 1320 1330 1340 
1350 1360 1370 1380 1390 1400 1410 1420 1430 
1440 1450 1460 1470 1480 1490 1500 1510 1520 
1530 1540 1550 1560 1570 1580 1590 1600 1610 
1620 1630 1640 1650 1660 1670 1680 1690 1700 
1710 1720 1730 1740 1750 1760 1770 1780 1790 
1800 1810 1820 1830 1840 1850 1860 1870 1880 
1890 1900 1910 1920 1930 1940 1950 1960 1970 
1980 1990 2000 2010 2020 2030 2040 2050 2060 
2070 2080 2090 2100 2110 2120 2130 2140 2150 
2160 2170 2180 2190 2200 2210 2220 2230 2240 
2250 2260 2270 2280 2290 2300 2310 2320 2330 
2340 2350 2360 2370 2380 2390 2400 2410 2420 
2430 2440 2450 2460 2470 2480 2490 2500 2510 
2520 2530 2540 2550 2560 2570 2580 2590 2600 
2610 2620 2630 2640 2650 2660 2670 2680 2690 
2700 2710 2720 2730 2740 2750 2760 2770 2780 
2790 2800 2810 2820 2830 2840 2850 2860 2870 
2880 2890 2900 2910 2920 2930 2940 2950 2960 
2970 2980 2990 3000 3010 3020 3030 3040 3050 
3060 3070 3080 3090 3100 3110 3120 3130 3140 
3150 3160 3170 3180 3190 3200 3210 3220 3230 
3240 3250 3260 3270 3280 3290 3300 3310 3320 
3330 3340 3350 3360 3370 3380 3390 3400 3410 
3420 3430 3440 3450 3460 3470 3480 3490 3500 
3510 3520 3530 3540 3550 3560 3570 3580 3590 
3600 3610 3620 3630 3640 3650 3660 3670 3680 
3690 3700 3710 3720 3730 3740 3750 3760 3770 
3780 3790 3800 3810 3820 3830 3840 3850 3860 
3870 3880 3890 3900 3910 3920 3930 3940 3950 
3960 3970 3980 3990 4000 4010 4020 4030 4040 
4050 4060 4070 4080 4090 4100 4110 4120 4130 
4140 4150 4160 4170 4180 4190 4200 4210 4220 
4230 4240 4250 4260 4270 4280 4290 4300 4310 
4320 4330 4340 4350 4360 4370 4380 4390 4400 
4410 4420 4430 4440 4450 4460 4470 4480 4490 
4500 4510 4520 4530 4540 4550 4560 4570 4580 
4590 4600 4610 4620 4630 4640 4650 4660 4670 
4680 4690 4700 4710 4720 4730 4740 4750 4760 
4770 4780 4790 4800 4810 4820 4830 4840 4850 
4860 4870 4880 4890 4900 4910 4920 4930 4940 
4950 4960 4970 4980 4990 5000 5010 5020 5030 
5040 5050 5060 5070 5080 5090 5100 5110 5120 
5130 5140 5150 5160 5170 5180 5190 5200 5210 
5220 5230 5240 5250 5260 5270 5280 5290 5300 
5310 5320 5330 5340 5350 5360 5370 5380 5390 
5400 5410 5420 5430 5440 5450 5460 5470 5480 
5490 5500 5510 5520 5530 5540 5550 5560 5570 
5580 5590 5600 5610 5620 5630 5640 5650 5660 
5670 5680 5690 5700 5710 5720 5730 5740 5750 
5760 5770 5780 5790 5800 5810 5820 5830 5840 
5850 5860 5870 5880 5890 5900 5910 5920 5930 
5940 5950 5960 5970 5980 5990 6000 6010 6020 
6030 6040 6050 6060 6070 6080 6090 6100 6110 
6120 6130 6140 6150 6160 6170 6180 6190 6200 
6210 6220 6230 6240 6250 6260 6270 6280 6290 
6300 6310 6320 6330 6340 6350 6360 6370 6380 
6390 6400 6410 6420 6430 6440 6450 6460 6470 
6480 6490 6500 6510 6520 6530 6540 6550 6560 
6570 6580 6590 6600 6610 6620 6630 6640 6650 
6660 6670 6680 6690 6700 6710 6720 6730 6740 
6750 6760 6770 6780 6790 6800 
CONNECTIVITY vtktypeint64
204 217 1046 734 1055 1054 1053 742 1072 
1073 816 14 16 1046 1074 243 828 1075 
1051 1052 727 204 1046 734 746 1053 1076 
781 742 1073 204 1045 217 734 1049 1050 
1055 742 1077 1072 816 16 812 1046 828 
831 832 1075 1052 1078 727 14 731 1046 
745 744 747 1076 1051 1079 816 16 14 
1056 828 243 1074 1080 1058 1059 731 727 
820 735 747 1082 1081 805 794 1083 1045 
11 819 734 1048 826 1084 1077 1085 1086 
731 14 816 1046 744 1074 1087 1079 1051 
1075 727 816 812 1046 1089 832 1088 1076 
1075 1078 816 727 731 1046 1089 747 1087 
1075 1076 1079 217 1045 819 734 1050 1084 
827 1072 1077 1086 1046 812 727 734 1078 
1088 1076 1073 1090 781 1056 14 816 731 
1059 1074 1080 1091 744 1087 816 812 820 
727 832 880 890 1089 1088 1082 820 727 
731 816 1082 747 1081 890 1089 1087 220 
207 1056 726 1066 1060 1064 1092 749 1093 
731 816 1056 726 1087 1080 1091 780 1094 
1093 820 735 727 721 1083 794 1082 1095 
795 793 207 220 1057 726 1066 1065 1063 
749 1092 1096 811 220 816 1056 833 829 
865 1097 1064 1080 731 1056 207 726 1091 
1060 743 780 1093 749 342 813 100 728 
1098 848 369 1099 1100 1101 732 813 342 
728 1103 1098 1102 763 1100 1099 723 340 
102 87 1105 375 1104 766 382 381 978 
906 536 897 1108 1107 1106 1109 928 1110 
578 298 587 659 1112 1111 609 1113 1114 
1115 247 468 459 396 1117 498 1116 1118 
1119 1120 469 251 388 397 1123 1122 1121 
1124 1125 418 588 293 651 660 1128 1127 
1126 1129 1130 689 531 898 907 979 1132 
936 1131 1133 1134 1135 102 808 101 340 
850 851 109 375 1136 374 340 87 723 
86 382 766 1105 377 94 765 723 817 
340 732 1138 1137 1105 767 1139 1140 11 
1045 9 734 1048 1047 230 1085 1077 740 
224 821 808 736 868 872 871 1141 1142 
1143 809 737 822 125 1145 1144 864 1146 
773 1147 340 102 808 723 375 850 1136 
1105 1104 1148 650 53 298 68 1150 312 
1149 680 319 320 536 167 969 152 558 
999 1151 550 557 1152 251 388 22 37 
1122 416 265 273 1153 272 24 39 459 
247 282 497 1154 281 283 1116 651 55 
70 293 1155 329 688 1127 328 330 531 
154 898 169 566 934 1132 568 567 1156 
53 298 578 650 312 1112 607 1150 1149 
1157 37 251 388 460 273 1122 1153 489 
1158 1159 152 969 536 897 1152 1151 550 
926 1160 1110 651 579 55 293 1161 615 
1155 1127 1162 328 24 247 459 387 281 
1116 1154 424 1163 1164 169 898 531 970 
1156 1132 568 1007 1165 1166 809 98 344 
83 840 359 1167 1168 361 362 728 100 
342 85 1101 369 1099 762 371 372 193 
979 909 981 1020 1170 1169 1019 1021 1171 
590 660 662 132 1173 698 1172 1174 697 
696 469 132 399 471 510 1176 1175 511 
508 1177 193 589 587 661 1179 636 1178 
705 1180 1181 98 344 99 809 359 360 
106 840 1167 839 724 344 84 83 1182 
367 755 754 362 91 84 99 344 724 
366 360 367 755 1183 1182 721 820 812 
727 1095 880 1184 793 1082 1088 536 969 
978 897 1151 1000 1106 1110 1160 1109 650 
298 578 659 1149 1112 1157 681 1114 1113 
459 387 247 396 1164 1163 1116 1120 426 
1118 388 251 469 460 1122 1123 1121 1159 
1158 490 651 293 588 579 1127 1128 1126 
1161 1162 617 979 531 898 970 1133 1132 
1134 1008 1166 1165 819 11 143 734 826 
146 825 1086 1085 1185 652 588 580 132 
1187 620 1186 694 1188 1189 581 653 193 
659 1191 704 1190 1192 676 707 972 900 
181 979 1194 945 1193 1011 1195 1196 462 
132 390 469 507 1198 1197 485 510 1199 
821 811 808 736 869 883 872 1142 1200 
1143 342 817 813 732 1201 847 1098 1102 
1139 1103 86 340 817 732 377 1137 1202 
761 1140 1139 818 346 100 733 1203 365 
842 1204 1205 1206 652 580 112 132 1186 
621 1207 694 1189 1208 581 192 193 653 
1209 196 1190 1191 673 704 900 181 180 
972 945 184 940 1194 1193 1210 131 132 
390 462 135 1198 1211 482 507 1197 906 
980 211 908 1213 1212 955 956 1214 952 
182 193 909 981 1215 1169 947 1216 1019 
1171 114 132 471 399 1218 508 1217 436 
1176 1177 662 132 114 590 696 1218 1219 
1172 1174 624 589 193 182 661 1179 1215 
633 1180 705 1220 192 5 530 171 195 
538 1221 982 179 541 57 112 0 292 
591 115 65 302 1222 301 131 72 1 
292 663 80 134 1223 303 300 180 4 
156 530 183 164 910 1224 539 540 225 
103 7 339 824 111 229 1225 354 351 
131 1 35 249 134 42 472 1226 254 
256 51 4 180 296 58 183 592 306 
304 1227 296 66 5 192 307 73 305 
1228 664 195 0 112 20 249 115 400 
27 253 1229 255 245 26 2 126 259 
34 258 1230 401 130 339 88 6 212 
353 96 352 1231 739 216 41 3 145 
245 49 149 473 260 257 1232 343 2 
82 126 347 89 349 1233 130 738 3 
343 97 145 348 350 104 149 1234 823 
225 7 165 534 229 172 983 1235 543 
545 212 6 534 150 216 542 1236 911 
157 544 817 340 808 723 1137 1136 852 
1138 1105 1148 1057 223 17 210 1237 226 
1062 1238 1239 1240 978 211 971 899 1242 
1241 995 1243 954 1244 152 536 906 897 
550 1107 922 926 1110 928 969 978 167 
536 1000 993 999 1151 1106 558 298 659 
650 68 1114 681 1149 320 674 680 578 
53 587 298 607 603 609 1112 312 1111 
387 24 247 396 424 281 1163 426 422 
1118 39 468 459 247 495 498 497 283 
1117 1116 469 251 37 460 1123 273 483 
490 1158 489 251 397 22 388 1125 412 
265 1122 418 416 588 55 579 293 613 
615 617 1128 328 1162 70 660 651 293 
686 689 688 330 1130 1127 169 531 979 
970 568 1133 1005 1007 1166 1008 898 907 
154 531 936 932 934 1132 1131 566 386 
391 467 395 448 1246 1245 455 434 1247 
586 577 655 658 646 1249 1248 1250 1251 
702 577 586 582 658 646 631 643 1251 
1250 1252 905 977 896 901 1254 1253 965 
943 1255 959 386 467 392 395 1245 1256 
453 455 1247 433 902 905 977 896 944 
1254 1257 962 965 1253 15 1057 17 210 
1061 1062 244 213 1238 1240 5 530 296 
192 538 1258 305 195 1221 1228 296 4 
180 530 304 183 1227 1258 539 1224 292 
1 131 249 300 134 1223 1259 254 1226 
292 112 0 249 1222 115 301 1259 1229 
253 339 7 225 534 351 229 1225 1260 
543 1235 145 3 343 245 149 348 1234 
1232 257 1261 6 534 339 212 542 1260 
352 216 1236 1231 245 2 343 126 258 
347 1261 1230 130 1233 85 100 346 733 
371 365 373 758 1206 1205 144 470 468 
398 514 518 517 1262 1263 1264 344 724 
809 83 1182 1265 1167 362 754 1168 212 
971 211 899 1266 1241 215 920 1244 954 
821 224 223 736 868 227 867 1142 1141 
1267 980 223 211 908 1024 1268 1212 1214 
1269 952 125 396 461 389 445 1271 1270 
444 429 1272 340 817 101 86 1137 845 
374 377 1202 376 814 729 211 723 1274 
785 1273 1275 770 786 144 809 730 815 
863 1277 1276 862 841 1278 1056 811 220 
726 1097 833 1064 1093 1279 1092 246 461 
25 389 1281 1280 286 1282 1272 427 294 
56 580 652 333 618 1283 1284 1285 1186 
900 972 532 170 1194 1287 1286 1288 1010 
574 535 166 971 899 553 990 1289 1290 
1291 1244 297 581 52 653 1292 600 308 
1293 1191 1294 390 250 462 36 1296 1295 
1197 1297 268 480 732 342 86 85 1102 
378 761 760 372 93 817 100 101 342 
846 108 845 1201 369 370 210 1057 811 
726 1238 1299 1298 750 1096 1279 735 820 
728 721 1083 1300 797 795 1095 796 389 
125 145 461 444 1302 1301 1272 1270 502 
1056 816 811 726 1080 865 1097 1093 1094 
1279 1057 811 223 210 1299 835 1237 1238 
1298 1239 809 344 99 724 1167 360 839 
1265 1182 1183 461 40 41 246 500 48 
499 1281 288 291 26 246 25 389 285 
286 33 428 1282 427 294 57 580 56 
332 619 1283 333 64 618 72 71 294 
652 79 336 338 690 691 1284 972 171 
532 170 1009 576 1287 1010 178 574 156 
155 900 532 163 937 938 570 571 1286 
535 899 150 151 1290 918 547 546 919 
158 166 971 165 535 990 991 173 553 
1289 549 653 297 66 67 1293 311 672 
671 315 74 52 51 581 297 59 599 
600 308 309 1292 20 390 21 250 408 
409 28 262 1296 261 250 35 462 36 
264 481 1295 268 43 480 124 470 144 
398 1304 514 1303 442 1263 1262 729 341 
103 88 1306 380 1305 769 385 384 82 
345 97 730 358 355 357 751 1307 1308 
124 822 737 125 1309 1144 772 128 1147 
773 737 725 809 822 776 1310 1145 1144 
1311 864 341 103 814 729 380 853 1312 
1306 1305 1274 345 815 97 730 1313 837 
355 1307 1278 1308 975 968 969 903 1032 
1031 998 1314 1315 1316 458 465 459 393 
522 496 521 1317 1318 1319 650 649 584 
656 712 1321 1320 679 713 1322 579 577 
657 585 642 1324 1323 616 645 1325 458 
466 394 460 526 1327 1326 525 488 1328 
976 904 898 968 1330 935 1329 1036 1331 
1332 102 729 814 723 1333 1274 854 1104 
770 1275 150 535 971 899 547 1289 1334 
918 1290 1244 581 297 51 653 1292 309 
599 1191 1293 1335 462 390 35 250 1197 
1336 481 1295 1296 264 246 41 461 389 
291 499 1281 1282 1337 1272 72 294 580 
652 338 1283 1338 690 1284 1186 171 532 
900 972 576 1286 1339 1009 1287 1194 192 
180 181 972 1341 184 1340 1012 1210 1193 
132 112 652 131 1208 1207 694 135 1342 
693 181 192 581 180 1340 1209 632 184 
1341 601 390 132 131 112 1198 135 1211 
410 1208 1342 909 979 181 907 1170 1196 
946 949 1135 948 909 979 193 181 1170 
1020 1169 946 1196 1343 132 399 397 469 
1176 439 1344 510 1175 1124 590 113 588 
132 623 625 626 1174 1345 1188 588 660 
590 132 1129 1173 626 1188 697 1174 661 
587 193 659 1181 1178 705 708 1115 707 
399 397 113 132 439 438 437 1176 1344 
1345 587 181 589 193 635 634 636 1178 
1343 1179 1057 220 811 726 1065 833 1299 
1096 1092 1279 723 811 726 736 1346 1279 
800 787 1200 784 808 817 101 340 852 
845 851 1136 1137 374 340 86 723 732 
377 765 1105 1140 761 767 193 587 581 
659 1178 604 1190 707 1115 1192 580 588 
113 132 620 625 622 1189 1188 1345 588 
652 660 132 1187 692 1129 1188 694 697 
907 181 900 979 948 945 939 1135 1196 
1195 390 132 397 469 1198 1344 413 1199 
510 1124 972 181 193 979 1193 1343 1017 
1011 1196 1020 181 587 581 193 635 604 
632 1343 1178 1190 113 397 390 132 438 
413 435 1345 1344 1198 459 465 39 393 
496 491 497 1319 1318 1347 969 152 975 
903 1152 1348 998 1316 924 1314 68 650 
584 656 680 1320 1349 678 679 1322 898 
154 904 976 934 930 935 1329 1350 1330 
37 394 466 460 1351 1327 487 489 1328 
488 579 55 585 657 615 611 616 1323 
1352 1325 466 394 23 465 1327 415 1353 
493 1354 1355 465 394 23 393 1354 415 
1355 1318 421 419 168 904 976 903 1356 
1330 1002 1357 931 1358 168 976 975 903 
1002 1003 996 1357 1358 1314 584 585 54 
657 612 610 606 1359 1325 1360 584 69 
656 657 1361 677 1322 1359 683 684 723 
211 808 736 786 1362 1148 787 782 1143 
808 211 224 736 1362 1363 871 1143 782 
1141 38 466 23 465 486 1353 277 492 
493 1355 904 168 153 903 1356 562 929 
931 1357 925 54 69 584 657 324 1361 
606 1360 683 1359 809 806 810 721 875 
873 874 1364 1365 1366 812 820 721 806 
880 1095 1184 877 879 1365 194 182 193 
661 1367 1215 197 706 1220 705 981 182 
193 194 1216 1215 1019 1018 1367 197 114 
132 662 133 1218 696 1219 1368 136 695 
471 132 114 133 508 1218 1217 509 136 
1368 112 580 113 132 621 622 116 1208 
1189 1345 192 181 193 972 1340 1343 196 
1012 1193 1017 112 113 390 132 116 435 
410 1208 1345 1198 193 192 581 181 196 
1209 1190 1343 1340 632 822 144 809 125 
857 863 864 1147 1369 1146 809 724 737 
125 1265 779 1145 1146 778 773 817 813 
100 342 847 848 846 1201 1098 369 728 
342 732 85 1099 1102 763 762 372 760 
726 723 807 811 800 1371 1370 1279 1346 
884 56 55 588 293 63 613 614 327 
328 1128 660 70 71 293 686 78 685 
1130 330 335 154 907 155 531 932 933 
162 566 1131 565 531 979 170 169 1133 
1004 573 568 1005 177 247 24 25 396 
281 32 280 1118 422 423 39 40 468 
247 47 494 495 283 289 1117 587 53 
52 298 603 60 602 1111 312 313 36 
251 37 469 269 273 44 484 1123 483 
251 21 22 397 266 29 265 1125 411 
412 298 67 659 68 316 675 1114 320 
75 674 167 978 166 536 993 994 174 
558 1106 554 151 536 906 152 551 1107 
921 159 550 922 734 812 810 819 1090 
878 1372 1086 866 859 211 808 814 723 
1362 855 1273 786 1148 1275 224 808 814 
211 871 855 870 1363 1362 1273 898 896 
902 974 961 962 963 1373 1374 1375 392 
458 460 464 1377 525 1376 1378 523 524 
582 651 649 654 1380 716 1379 1381 714 
715 578 577 655 583 638 1249 1382 639 
640 1383 458 459 463 391 521 519 520 
1384 1385 1386 901 973 968 897 1388 1029 
1387 958 1389 1390 976 533 904 168 1392 
1391 1330 1002 563 1356 295 54 585 657 
323 610 1393 1394 1360 1325 394 23 252 
466 415 270 1395 1327 1353 1396 980 211 
978 906 1212 1242 1028 1213 955 1108 971 
211 225 212 1241 1397 992 1266 215 1398 
904 533 153 168 1391 561 929 1356 563 
562 69 54 295 657 324 323 325 683 
1360 1394 466 23 252 38 1353 270 1396 
486 277 279 248 465 23 393 1399 1355 
276 1400 1318 419 656 584 299 69 1322 
1402 1401 677 1361 326 975 537 168 903 
1403 564 996 1314 1404 1357 728 813 100 
733 1100 848 1101 764 1405 1206 899 978 
211 906 1243 1242 954 923 1108 955 83 
809 815 730 1168 841 1406 752 1277 1278 
461 25 40 246 1280 287 500 1281 286 
288 71 56 294 652 334 333 336 691 
1285 1284 532 155 900 170 571 937 1286 
574 572 1288 250 390 21 36 1296 409 
261 268 1297 267 899 535 166 151 1290 
553 1291 919 546 552 653 52 297 67 
1294 308 1293 671 314 315 182 181 909 
193 185 946 947 1215 1343 1169 113 590 
114 132 623 624 117 1345 1174 1218 113 
114 399 132 117 436 437 1345 1218 1176 
589 181 182 193 634 185 633 1179 1343 
1215 733 818 99 724 1204 843 1407 759 
1408 1183 465 23 38 248 1355 277 492 
1399 276 278 54 299 584 69 317 1402 
606 324 326 1361 537 153 168 903 555 
562 564 1404 925 1357 589 182 583 661 
633 598 637 1180 1220 1409 654 114 590 
662 1411 624 1410 699 1219 1172 182 974 
981 909 1412 1022 1216 947 1413 1171 399 
114 392 471 436 404 440 1177 1217 1414 
124 463 470 398 1415 515 1304 442 1416 
1263 223 973 908 980 989 1417 1269 1024 
1025 1214 973 17 223 210 987 226 989 
1418 1240 1239 723 102 729 87 1104 1333 
770 766 381 768 10 392 8 114 1419 
403 231 1420 404 118 11 143 9 463 
146 1421 230 478 479 1422 17 973 15 
210 987 1423 244 1240 1418 213 114 8 
10 654 118 231 1420 1411 1424 665 655 
577 586 583 1249 646 1248 1383 640 630 
582 654 649 658 1381 715 1379 1252 703 
718 973 968 977 901 1029 1037 1015 1388 
1387 1255 458 463 467 391 520 506 527 
1384 1386 1246 392 467 458 464 1256 527 
1377 1378 505 523 902 896 977 974 962 
1253 1257 1375 1374 1016 722 731 820 735 
802 1081 1425 804 805 1083 908 223 211 
210 1269 1268 952 951 1239 214 210 223 
211 736 1239 1268 214 783 1267 782 807 
723 726 722 1371 800 1370 1426 798 799 
809 730 724 125 1277 756 1265 1146 777 
778 730 809 144 125 1277 863 1276 777 
1146 1369 99 346 100 818 364 365 107 
843 1203 842 84 85 346 733 92 373 
368 757 758 1205 968 974 898 970 1034 
1373 1332 1035 1033 1165 579 577 582 651 
642 643 644 1161 1427 1380 386 388 392 
460 451 452 453 1428 1159 1376 649 651 
582 577 716 1380 1379 1429 1427 643 655 
577 578 650 1249 638 1382 711 1430 1157 
577 650 655 649 1430 711 1249 1429 712 
710 386 460 392 458 1428 1376 453 1431 
525 1377 391 458 459 387 1384 521 1385 
449 1432 1164 974 898 896 968 1373 961 
1374 1034 1332 1433 391 386 458 387 448 
1431 1384 449 447 1432 901 968 896 897 
1387 1433 959 958 1390 957 968 973 969 
897 1029 1030 1031 1390 1389 1160 723 808 
811 736 1148 883 1346 787 1143 1200 815 
97 98 345 837 105 836 1313 355 356 
345 82 83 730 358 90 363 1307 751 
752 398 468 144 396 1264 517 1262 446 
1119 1434 145 125 389 126 1302 444 1301 
1435 129 430 812 721 727 725 1184 793 
1088 1436 790 792 98 809 815 83 840 
841 836 361 1168 1406 144 468 461 396 
517 501 516 1434 1119 1271 721 810 809 
725 1366 874 1364 790 1437 1310 809 818 
806 721 844 876 875 1364 1438 1365 980 
224 978 211 1023 1027 1028 1212 1363 1242 
812 725 727 734 1436 792 1088 1090 775 
781 100 813 818 733 848 849 842 1206 
1405 1204 814 808 102 723 855 850 854 
1275 1148 1104 728 722 820 735 803 1425 
1300 797 804 1083 978 224 971 211 1027 
1026 995 1242 1363 1241 817 723 722 732 
1138 798 1439 1139 767 801 721 818 733 
724 1438 1204 791 788 1408 759 535 971 
165 150 1289 991 549 547 1334 548 66 
51 297 653 310 309 311 672 1335 1293 
35 390 20 250 1336 408 263 264 1296 
262 57 294 580 72 332 1283 619 337 
338 1338 246 26 41 389 285 290 291 
1282 428 1337 156 532 900 171 570 1286 
938 575 576 1339 901 905 977 232 943 
1254 1255 915 942 1440 809 810 822 725 
874 861 864 1310 1437 1311 582 8 114 
654 594 118 593 1381 1424 1411 649 655 
577 658 710 1249 1429 718 702 1251 582 
649 577 658 1379 1429 643 1252 718 1251 
977 968 896 901 1037 1433 1253 1255 1387 
959 467 391 386 458 1246 448 1245 527 
1384 1431 458 467 392 386 527 1256 1377 
1431 1245 453 968 896 974 977 1433 1374 
1034 1037 1253 1016 144 143 470 124 147 
513 514 1303 1441 1304 807 808 811 723 
885 883 884 1371 1148 1346 814 102 103 
341 854 110 853 1312 379 380 88 729 
341 87 769 1306 385 95 768 383 733 
99 84 724 1407 366 757 759 1183 755 
971 224 225 211 1026 228 992 1241 1363 
1397 729 211 225 814 785 1397 1442 1274 
1273 856 459 387 458 393 1164 1432 521 
1319 425 1317 903 968 969 897 1315 1031 
1316 927 1390 1160 903 896 968 897 960 
1433 1315 927 957 1390 577 584 578 650 
641 608 638 1430 1320 1157 649 584 577 
650 1321 641 1429 712 1320 1430 387 386 
458 393 447 1431 1432 425 450 1317 657 
577 579 651 1324 642 1323 687 1427 1161 
651 657 577 649 687 1324 1427 716 717 
1429 976 968 898 970 1036 1332 1329 1006 
1035 1165 386 394 388 460 454 417 451 
1428 1328 1159 898 904 896 968 935 964 
961 1332 1331 1433 458 460 394 386 525 
1328 1326 1431 1428 454 822 143 144 124 
858 147 857 1309 1441 1303 734 810 143 
819 1372 860 1185 1086 859 825 974 13 
182 194 985 1443 1412 986 198 1367 464 
114 10 133 1444 1420 474 476 1368 137 
194 13 182 655 198 1443 1367 670 668 
1445 9 463 143 124 1422 479 1421 127 
1415 1441 654 10 114 133 665 1420 1411 
666 137 1368 39 465 38 248 491 492 
46 284 1399 278 248 23 24 393 276 
31 275 1400 419 420 168 975 167 537 
996 997 175 564 1403 559 152 153 537 
903 160 555 556 924 925 1404 656 299 
68 69 1401 321 678 677 326 76 54 
53 584 299 61 605 606 317 318 1402 
533 976 169 168 1392 1001 569 563 1002 
176 153 904 154 533 929 930 161 561 
1391 560 295 55 585 54 322 611 1393 
323 62 610 657 295 69 70 1394 325 
683 682 331 77 252 22 23 394 271 
30 270 1395 414 415 252 37 466 38 
274 487 1396 279 45 486 223 17 811 
1057 226 834 835 1237 1062 1299 39 24 
459 393 282 1154 497 1347 420 1319 584 
650 68 53 1320 680 1349 605 1150 319 
969 167 975 152 999 997 998 1152 557 
1348 388 394 22 37 417 414 416 1153 
1351 272 169 154 898 976 567 934 1156 
1001 1350 1329 55 70 657 651 329 682 
1352 1155 688 687 182 12 13 902 186 
242 1443 914 912 1446 13 182 583 12 
1443 598 1447 242 186 597 387 459 24 
393 1164 1154 424 425 1319 420 578 584 
53 650 608 605 607 1157 1320 1150 903 
969 152 897 1316 1152 924 927 1160 926 
37 388 394 460 1153 417 1351 489 1159 
1328 976 898 169 970 1329 1156 1001 1006 
1165 1007 657 579 55 651 1323 615 1352 
687 1161 1155 85 728 100 733 762 1101 
371 758 764 1206 145 815 144 730 838 
862 148 1448 1278 1276 211 223 980 224 
1268 1024 1212 1363 227 1023 225 211 729 
212 1397 785 1442 1398 215 771 211 223 
224 736 1268 227 1363 782 1267 1141 464 
10 119 138 474 891 1449 475 140 894 
187 199 655 13 1043 669 1450 1042 201 
668 120 139 9 391 893 892 123 406 
1451 405 15 973 237 232 1423 988 1069 
234 1452 1070 530 180 296 192 1224 1227 
1258 1221 1341 1228 112 292 131 249 1222 
1223 1342 1229 1259 1226 534 225 339 212 
1235 1225 1260 1236 1398 1231 245 343 145 
126 1261 1234 1232 1230 1233 1435 396 144 
398 125 1434 1262 446 445 1369 441 9 
734 143 11 740 1185 1421 230 1085 146 
722 817 807 723 1439 886 1426 798 1138 
1371 461 396 125 144 1271 445 1270 516 
1434 1369 182 13 974 902 1443 985 1412 
914 1446 1375 114 10 392 464 1420 1419 
404 1444 474 1378 13 655 583 182 668 
1383 1447 1443 1445 598 124 9 463 391 
127 1422 1415 407 405 1386 901 15 973 
210 916 1423 1388 917 213 1418 125 145 
730 126 1302 1448 777 129 1435 753 975 
152 537 903 1348 556 1403 1314 924 1404 
299 68 584 656 321 1349 1402 1401 678 
1322 248 39 465 393 284 491 1399 1400 
1347 1318 466 252 394 37 1396 1395 1327 
487 274 1351 55 295 585 657 322 1393 
611 1352 1394 1325 533 904 154 976 1391 
930 560 1392 1330 1350 145 461 125 144 
502 1270 1302 148 516 1369 809 83 724 
730 1168 754 1265 1277 752 756 901 973 
15 232 1388 1423 916 915 1452 234 807 
817 808 723 886 852 885 1371 1138 1148 
394 458 465 466 1326 522 1354 1327 526 
493 393 394 458 465 421 1326 1317 1318 
1354 522 975 976 968 903 1003 1036 1032 
1314 1358 1315 584 656 649 657 1322 713 
1321 1359 684 717 657 585 577 584 1325 
645 1324 1359 612 641 968 976 904 903 
1036 1330 1331 1315 1358 931 655 182 194 
661 1445 1367 670 709 1220 706 114 662 
654 133 1219 699 1411 1368 695 666 981 
974 182 194 1022 1412 1216 1018 986 1367 
464 471 114 133 512 1217 1444 476 509 
1368 908 973 223 210 1417 989 1269 951 
1418 1239 470 463 124 143 515 1415 1304 
513 479 1441 210 15 1057 726 213 1061 
1238 750 748 1096 725 809 721 724 1310 
1364 790 789 1265 788 398 144 124 125 
1262 1303 442 441 1369 128 816 820 807 
731 890 889 887 1087 1081 1453 225 814 
211 224 856 1273 1397 228 870 1363 143 
734 9 124 1185 740 1421 1441 741 127 
220 811 17 1057 833 834 222 1065 1299 
1062 822 124 144 125 1309 1303 857 1147 
128 1369 809 725 737 724 1310 776 1145 
1265 789 779 99 818 809 724 843 844 
839 1183 1408 1265 212 150 971 899 911 
1334 1266 920 918 1244 192 653 581 51 
673 1191 1209 1454 1335 599 145 461 41 
389 502 499 473 1301 1272 1337 72 580 
112 652 1338 621 1455 690 1186 1207 462 
35 390 131 481 1336 1197 482 472 1211 
171 900 180 972 1339 940 1456 1009 1194 
1210 977 233 232 905 1457 235 1440 1254 
941 942 813 820 721 728 882 1095 1458 
1100 1300 796 187 199 658 655 1043 700 
1459 1450 669 702 120 395 139 391 431 
1460 893 406 434 1451 119 467 464 138 
1461 505 1449 894 503 475 237 973 977 
232 988 1015 1013 1070 1452 1440 655 583 
182 661 1383 598 1445 709 1409 1220 902 
182 909 974 914 947 950 1375 1412 1413 
590 114 654 582 624 1411 1410 627 593 
1381 114 471 464 392 1217 512 1444 404 
1414 1378 973 908 901 210 1417 953 1388 
1418 951 917 391 463 124 398 1386 1415 
407 443 1416 442 810 812 721 806 878 
1184 1366 873 877 1365 730 144 145 125 
1276 148 1448 777 1369 1302 721 809 818 
724 1364 844 1438 788 1265 1408 392 10 
8 119 1419 231 403 402 891 121 463 
139 9 11 477 892 1422 478 142 230 
237 973 15 17 988 1423 1069 239 987 
244 188 10 8 654 1040 231 191 1462 
665 1424 813 806 721 820 881 1365 1458 
882 879 1095 901 977 973 232 1255 1015 
1388 915 1440 1452 815 345 83 730 1313 
363 1406 1278 1307 752 731 807 816 726 
1453 887 1087 780 1370 1094 971 166 978 
899 990 994 995 1244 1291 1243 396 25 
461 389 423 1280 1271 429 427 1272 52 
659 653 581 1463 676 1294 600 1192 1191 
588 580 56 652 620 618 614 1187 1186 
1285 390 36 462 469 1297 480 1197 1199 
484 485 170 900 972 979 1288 1194 1010 
1004 1195 1011 207 1057 15 726 1063 1061 
209 749 1096 748 88 103 729 212 384 
1305 769 739 1464 771 97 145 82 730 
823 1465 357 1308 1448 751 167 537 975 
152 559 1403 997 557 556 1348 299 53 
584 68 318 605 1402 321 319 1349 248 
24 39 393 275 282 284 1400 420 1347 
582 586 188 658 631 628 595 1252 1250 
1466 187 655 658 586 1450 702 1459 629 
1248 1250 467 119 392 395 1461 402 1256 
1247 432 433 233 905 977 902 941 1254 
1457 913 944 1257 139 395 467 391 1460 
1247 504 1451 434 1246 102 341 814 729 
379 1312 854 1333 1306 1274 815 145 97 
730 838 823 837 1278 1448 1308 814 103 
225 729 853 824 856 1274 1305 1442 8 
582 188 654 594 595 191 1424 1381 1462 
394 252 22 37 1395 271 414 1351 274 
272 295 657 55 70 1394 1352 322 331 
682 329 154 169 533 976 567 569 560 
1350 1001 1392 51 66 296 192 310 307 
306 1454 664 1228 131 35 20 249 472 
263 1467 1226 256 255 180 530 156 171 
1224 540 910 1456 541 575 72 112 57 
292 1455 591 337 303 1222 302 343 82 
97 145 349 357 350 1234 1465 823 225 
534 165 150 1235 545 983 1468 544 548 
103 88 339 212 384 353 354 1464 739 
1231 26 245 41 126 259 260 290 401 
1230 1469 51 653 66 192 1335 672 310 
1454 673 664 225 165 971 150 983 991 
992 1468 548 1334 35 20 390 131 263 
408 1336 472 1467 1211 389 26 41 126 
428 290 1337 430 401 1469 580 112 57 
72 621 591 619 1338 1455 337 900 180 
156 171 940 910 938 1339 1456 575 721 
812 810 725 1184 878 1366 790 1436 1437 
909 970 974 981 1470 1033 1413 1171 1039 
1022 399 392 388 471 440 452 457 1177 
1414 1471 662 590 654 651 1172 1410 699 
720 1472 714 583 578 589 661 639 647 
637 1409 1473 1180 463 398 459 470 1416 
1474 519 515 1263 528 973 897 908 980 
1389 966 1417 1025 1475 1214 657 584 577 
649 1359 641 1324 717 1321 1429 458 394 
393 386 1326 421 1317 1431 454 450 968 
904 896 903 1331 964 1433 1315 931 960 
98 83 815 345 361 1406 836 356 363 
1313 902 12 13 238 912 242 1446 1476 
1067 241 12 902 233 238 912 913 236 
1067 1476 1068 10 654 188 200 665 1462 
1040 203 667 1041 187 13 583 12 1042 
1447 596 189 242 597 729 103 225 212 
1305 824 1442 771 1464 1398 810 812 734 
725 878 1090 1372 1437 1436 775 82 730 
145 126 751 1448 1465 738 753 1435 192 
51 581 180 1454 599 1209 1341 592 601 
971 150 212 225 1334 911 1266 992 1468 
1398 652 112 72 131 1207 1455 690 693 
1342 663 390 20 112 131 408 400 410 
1211 1467 1342 145 389 41 126 1301 1337 
473 1435 430 1469 171 180 192 972 1456 
1341 982 1009 1210 1012 296 180 51 192 
1227 592 306 1228 1341 1454 131 20 112 
249 1467 400 1342 1226 255 1229 131 112 
72 292 1342 1455 663 1223 1222 303 192 
530 180 171 1221 1224 1341 982 541 1456 
145 343 82 126 1234 349 1465 1435 1233 
738 212 534 225 150 1236 1235 1398 911 
544 1468 339 225 103 212 1225 824 354 
1231 1398 1464 245 145 41 126 1232 473 
260 1230 1435 1469 722 820 813 728 1425 
882 1477 803 1300 1100 733 813 721 728 
1405 1458 791 764 1100 796 818 99 346 
733 843 364 1203 1204 1407 1205 974 902 
13 238 1375 1446 985 984 1476 241 119 
392 10 464 402 1419 891 1449 1378 474 
9 139 463 391 892 477 1422 405 1451 
1386 187 13 655 583 1042 668 1450 596 
1447 1383 86 817 342 732 1202 1201 378 
761 1139 1102 729 102 341 87 1333 379 
1306 768 381 383 906 899 166 151 923 
1291 1478 921 919 552 653 659 52 67 
676 1463 1294 671 675 314 468 25 40 
461 1479 287 494 501 1280 500 390 397 
21 36 413 411 409 1297 1480 267 660 
56 71 652 1481 334 685 692 1285 691 
900 155 907 170 937 933 939 1288 572 
1482 237 977 233 232 1013 1457 1071 1070 
1440 235 138 119 467 139 894 1461 503 
141 895 504 139 119 395 120 895 432 
1460 893 122 431 200 658 187 199 701 
1459 1044 202 700 1043 822 737 725 124 
1144 776 1311 1309 772 774 734 810 725 
124 1372 1437 775 741 1483 774 721 813 
818 806 1458 849 1438 1365 881 876 818 
813 721 733 849 1458 1438 1204 1405 791 
143 810 734 124 860 1372 1185 1441 1483 
741 84 346 99 733 368 364 366 757 
1205 1407 654 658 188 200 703 1466 1462 
667 701 1041 233 902 977 238 913 1257 
1457 1068 1476 1014 906 166 536 151 1478 
554 1107 921 552 551 659 298 52 67 
1114 313 1463 675 316 314 25 468 40 
247 1479 494 287 280 1117 289 397 251 
21 36 1125 266 411 1480 269 267 56 
660 71 293 1481 685 334 327 1130 335 
531 907 155 170 1131 933 565 573 1482 
572 395 119 139 467 432 895 1460 1247 
1461 504 188 187 658 586 190 1459 1466 
628 629 1250 732 722 813 728 801 1477 
1103 763 803 1100 166 899 906 978 1291 
923 1478 994 1243 1108 461 25 396 468 
1280 423 1271 501 1479 1119 52 581 587 
659 600 604 602 1463 1192 1115 36 390 
397 469 1297 413 1480 484 1199 1124 56 
660 588 652 1481 1129 614 1285 692 1187 
900 170 907 979 1288 1482 939 1195 1004 
1135 342 101 817 86 370 845 1201 378 
376 1202 399 388 469 471 457 1121 1175 
1177 1471 511 909 979 970 981 1170 1008 
1470 1171 1021 1039 587 589 578 661 636 
647 609 1181 1180 1473 590 651 662 660 
1472 720 1172 1173 689 698 897 980 906 
908 1475 1213 928 966 1214 956 459 468 
470 398 498 518 528 1474 1264 1263 1046 
727 14 204 1076 745 1051 1053 746 206 
812 16 217 1046 831 219 830 1078 1052 
1054 821 223 811 736 867 835 869 1142 
1267 1200 188 658 654 582 1466 703 1462 
595 1252 1381 586 187 655 583 629 1450 
1248 630 596 1383 238 902 977 974 1476 
1257 1014 984 1375 1016 464 119 392 467 
1449 402 1378 505 1461 1256 467 463 139 
391 506 477 504 1246 1386 1451 898 902 
909 974 963 950 967 1373 1375 1413 471 
392 460 464 1414 1376 529 512 1378 524 
654 590 582 651 1410 627 1381 714 1472 
1380 655 578 583 661 1382 639 1383 709 
1473 1409 391 398 459 463 443 1474 1385 
1386 1416 519 908 897 973 901 966 1389 
1417 953 958 1388 536 978 166 906 1106 
994 554 1107 1108 1478 587 298 52 659 
1111 313 602 1115 1114 1463 247 25 468 
396 280 1479 1117 1118 423 1119 36 397 
251 469 1480 1125 269 484 1124 1123 588 
660 56 293 1129 1481 614 1128 1130 327 
907 170 531 979 1482 573 1131 1135 1004 
1133 822 725 810 124 1311 1437 861 1309 
774 1483 820 731 722 807 1081 802 1425 
889 1453 1426 722 813 817 732 1477 847 
1439 801 1103 1139 813 820 722 807 882 
1425 1477 888 889 1426 811 816 807 726 
865 887 884 1279 1094 1370 810 143 822 
124 860 858 861 1483 1441 1309 898 974 
909 970 1373 1413 967 1165 1033 1470 460 
388 392 471 1159 452 1376 529 1471 1414 
579 582 590 651 644 627 648 1161 1380 
1472 650 578 655 661 1157 1382 711 719 
1473 709 459 398 391 387 1474 443 1385 
1164 456 449 969 973 980 897 1030 1025 
1038 1160 1389 1475 731 722 807 726 802 
1426 1453 780 799 1370 233 977 237 238 
1457 1013 1071 1068 1014 240 187 658 200 
188 1459 701 1044 190 1466 1041 817 813 
722 807 847 1477 1439 886 888 1426 220 
16 816 1056 221 828 829 1064 1058 1080 
207 14 1056 731 208 1059 1060 743 744 
1091 726 811 210 736 1279 1298 750 784 
1200 783 210 811 223 736 1298 835 1239 
783 1200 1267 469 388 399 397 1121 457 
1175 1124 418 439 587 661 578 659 1181 
1473 609 1115 708 1113 979 907 909 898 
1135 949 1170 1134 936 967 651 590 588 
660 1472 626 1126 689 1173 1129 980 906 
978 897 1213 1108 1028 1475 928 1109 398 
459 468 396 1474 498 1264 446 1120 1119 
460 469 388 471 490 1121 1159 529 511 
1471 970 979 909 898 1008 1170 1470 1165 
1134 967 661 650 578 659 719 1157 1473 
708 681 1113 590 588 579 651 626 617 
648 1472 1126 1161 978 969 980 897 1000 
1038 1028 1109 1160 1475 459 398 387 396 
1474 456 1164 1120 446 426 343 3 2 
245 348 19 347 1261 257 258 339 6 
7 534 352 81 351 1260 542 543 292 
0 1 249 301 18 300 1259 253 254 
296 5 4 530 305 50 304 1258 538 
539 819 217 11 1045 827 218 826 1084 
1050 1048 204 9 1045 734 205 1047 1049 
742 740 1077 217 812 734 819 830 1090 
1072 827 866 1086 812 217 734 1046 830 
1072 1090 1078 1054 1073 
CELL_TYPES 680
24
24
24
24
24
24
24
24
24
24
24
24
24
24
24
24
24
24
24
24
24
24
24
24
24
24
24
24
24
24
24
24
24
24
24
24
24
24
24
24
24
24
24
24
24
24
24
24
24
24
24
24
24
24
24
24
24
24
24
24
24
24
24
24
24
24
24
24
24
24
24
24
24
24
24
24
24
24
24
24
24
24
24
24
24
24
24
24
24
24
24
24
24
24
24
24
24
24
24
24
24
24
24
24
24
24
24
24
24
24
24
24
24
24
24
24
24
24
24
24
24
24
24
24
24
24
24
24
24
24
24
24
24
24
24
24
24
24
24
24
24
24
24
24
24
24
24
24
24
24
24
24
24
24
24
24
24
24
24
24
24
24
24
24
24
24
24
24
24
24
24
24
24
24
24
24
24
24
24
24
24
24
24
24
24
24
24
24
24
24
24
24
24
24
24
24
24
24
24
24
24
24
24
24
24
24
24
24
24
24
24
24
24
24
24
24
24
24
24
24
24
24
24
24
24
24
24
24
24
24
24
24
24
24
24
24
24
24
24
24
24
24
24
24
24
24
24
24
24
24
24
24
24
24
24
24
24
24
24
24
24
24
24
24
24
24
24
24
24
24
24
24
24
24
24
24
24
24
24
24
24
24
24
24
24
24
24
24
24
24
24
24
24
24
24
24
24
24
24
24
24
24
24
24
24
24
24
24
24
24
24
24
24
24
24
24
24
24
24
24
24
24
24
24
24
24
24
24
24
24
24
24
24
24
24
24
24
24
24
24
24
24
24
24
24
24
24
24
24
24
24
24
24
24
24
24
24
24
24
24
24
24
24
24
24
24
24
24
24
24
24
24
24
24
24
24
24
24
24
24
24
24
24
24
24
24
24
24
24
24
24
24
24
24
24
24
24
24
24
24
24
24
24
24
24
24
24
24
24
24
24
24
24
24
24
24
24
24
24
24
24
24
24
24
24
24
24
24
24
24
24
24
24
24
24
24
24
24
24
24
24
24
24
24
24
24
24
24
24
24
24
24
24
24
24
24
24
24
24
24
24
24
24
24
24
24
24
24
24
24
24
24
24
24
24
24
24
24
24
24
24
24
24
24
24
24
24
24
24
24
24
24
24
24
24
24
24
24
24
24
24
24
24
24
24
24
24
24
24
24
24
24
24
24
24
24
24
24
24
24
24
24
24
24
24
24
24
24
24
24
24
24
24
24
24
24
24
24
24
24
24
24
24
24
24
24
24
24
24
24
24
24
24
24
24
24
24
24
24
24
24
24
24
24
24
24
24
24
24
24
24
24
24
24
24
24
24
24
24
24
24
24
24
24
24
24
24
24
24
24
24
24
24
24
24
24
24
24
24
24
24
24
24
24
24
24
24
24
24
24
24
24
24
24
24
24
24
24
24
24
24
24
24
24
24
24
24
24
24
24
24
24
24
24
24
24
24
24
24
24
24
24
24
24
24
24
24
24
24
24
24
24
24
24
24
24
24
24
24
24
24
24
24
24
24
24
24
24
24
24
24
24
24
24
24
24
24
24
24
24

POINT_DATA 1484
FIELD FieldData 10
Displacement 3 1484 double
0 0 0 0 0 0 0 0 0 
0 0 0 -4.1980951736e-05 -2.840678326e-06 4.338242719e-06 -4.1426837939e-05 -3.1588226984e-06 4.3336327711e-06 
-5.1652759085e-05 1.2196274858e-05 1.0347926122e-07 -5.1602151297e-05 1.210841308e-05 9.5088669005e-08 -3.1053312658e-05 3.5667230091e-06 3.2756785909e-06 
-5.293608723e-06 -2.0390909557e-06 -1.9106421563e-06 -2.8283215903e-05 3.266826167e-06 -4.5358347917e-06 -5.5907185222e-06 -2.365686907e-06 1.9645816759e-06 
-5.2718005212e-05 -1.386940239e-05 7.263676591e-07 -5.2159243956e-05 -1.4248205452e-05 4.0889472829e-07 -1.6878904515e-05 -7.0837087718e-06 -4.7391371622e-07 
-2.7792839301e-05 -1.1684860424e-05 -2.3396346515e-07 -1.6980104266e-05 -7.1459725669e-06 -2.7473253992e-07 -2.8057955283e-05 -1.1794606227e-05 -7.5777865753e-07 
0 0 0 0 0 0 0 0 0 
0 0 0 0 0 0 0 0 0 
0 0 0 0 0 0 0 0 0 
0 0 0 0 0 0 0 0 0 
0 0 0 0 0 0 0 0 0 
0 0 0 0 0 0 0 0 0 
0 0 0 0 0 0 0 0 0 
0 0 0 0 0 0 0 0 0 
0 0 0 0 0 0 0 0 0 
0 0 0 0 0 0 0 0 0 
0 0 0 0 0 0 -4.1700625351e-05 -3.0037515454e-06 4.3358567923e-06 
-4.5795218769e-05 -2.8124840156e-06 3.8484502889e-06 -4.9673877937e-05 -2.6446662546e-06 3.3547584115e-06 -5.3743880448e-05 -2.7072121171e-06 2.8488050054e-06 
-5.5263046871e-05 -7.7057738455e-06 4.2532523764e-06 -4.0769976594e-05 -1.7896731731e-05 9.7842923934e-07 -1.269924125e-05 -1.6706011803e-05 -1.5695714934e-06 
-1.5242147478e-06 -2.4379569121e-06 -8.3558791864e-07 -4.3902184181e-05 -2.8430389427e-06 4.094910125e-06 -4.7708404234e-05 -2.7381947183e-06 3.5996511454e-06 
-5.1717397191e-05 -2.614088123e-06 3.1044759213e-06 -5.5405203943e-05 -3.8322254564e-06 3.1958000143e-06 -5.1491960657e-05 -1.3759011706e-05 3.5358124484e-06 
-2.724067238e-05 -1.8268364505e-05 4.7960137414e-07 -4.5090272381e-06 -7.390817984e-06 -2.4582393971e-06 -6.4556553555e-07 -8.1420778524e-07 -4.3219674443e-07 
-4.5242382296e-05 -3.1364694094e-06 3.8681500757e-06 -4.9123573461e-05 -2.9850334167e-06 3.3796917444e-06 -5.3241062078e-05 -3.0493245299e-06 2.7884597384e-06 
-5.45657709e-05 -7.8122724014e-06 -1.6493922732e-08 -4.1095328969e-05 -1.849909238e-05 6.8923682977e-07 -1.2589112126e-05 -1.622048011e-05 2.5061223798e-06 
-1.6963880935e-06 -2.3731088773e-06 7.2602752664e-07 -4.3349048361e-05 -3.1620549121e-06 4.0992783043e-06 -4.7152020015e-05 -3.0665122763e-06 3.6339743631e-06 
-5.1170030001e-05 -2.9610511464e-06 3.1095577145e-06 -5.4882378523e-05 -4.2400811689e-06 1.7867736495e-06 -5.133046482e-05 -1.4310557958e-05 -7.0853853563e-07 
-2.7284463561e-05 -1.8570372701e-05 6.4766913015e-07 -4.6211857599e-06 -7.7525710566e-06 2.539916255e-06 -6.8008794894e-07 -7.5709531634e-07 3.1333583828e-07 
-5.1634229006e-05 1.2144716403e-05 9.9084606938e-08 -1.462650419e-06 2.9658754747e-06 5.5832276314e-07 -3.4525582748e-06 6.464146693e-06 9.6189800029e-07 
-8.8499716678e-06 1.1063844445e-05 6.1200391715e-09 -1.6974277596e-05 1.2288674912e-05 -8.6507135793e-08 -2.6083973308e-05 1.2818985937e-05 -1.5934663215e-07 
-3.507364902e-05 1.2611835854e-05 -1.5165732413e-07 -4.3437323558e-05 1.2247061816e-05 -4.3753643355e-08 -9.6318332058e-07 1.2219438599e-06 6.0689714008e-07 
-1.8878366419e-06 4.7000764202e-06 5.5107429688e-07 -5.8114944298e-06 9.0670054246e-06 7.8650659393e-07 -1.2744278277e-05 1.1686570874e-05 -5.6562206961e-08 
-2.1485300361e-05 1.2665435472e-05 -1.2977469498e-07 -3.0638709166e-05 1.2772910875e-05 -1.6887878486e-07 -3.9318773692e-05 1.240140438e-05 -1.1261452304e-07 
-4.7521201612e-05 1.2192860274e-05 3.1508770223e-08 -1.3207901265e-06 2.9708810554e-06 -6.9343394713e-07 -3.6918044522e-06 6.6374463793e-06 -8.9549113343e-07 
-8.8896258415e-06 1.1084904943e-05 -3.4838718376e-07 -1.699104192e-05 1.2278598807e-05 -2.9191379799e-07 -2.6092033127e-05 1.2788671724e-05 -1.788140187e-07 
-3.5073488361e-05 1.2562525089e-05 -6.9263152032e-08 -4.3406074238e-05 1.2172638422e-05 -9.0755266131e-10 -9.4671305189e-07 1.3265606122e-06 -7.4696100869e-07 
-1.9698505854e-06 4.6493239503e-06 -5.3553975778e-07 -5.7724381669e-06 9.1833877734e-06 -1.0100167493e-06 -1.2761636701e-05 1.170112999e-05 -3.0904142075e-07 
-2.1497053986e-05 1.2647646295e-05 -2.4211756419e-07 -3.0642324267e-05 1.2731211297e-05 -1.2018480431e-07 -3.9295444522e-05 1.2336371356e-05 -3.2920571579e-08 
-4.747854001e-05 1.2107657672e-05 4.1118887407e-08 -2.1789909253e-07 -5.8260160253e-07 -1.5696878262e-07 -1.5821017718e-06 6.0552608493e-07 3.8274392242e-07 
-5.4845133589e-06 -1.4350938224e-06 9.9002060324e-07 -1.7169867198e-07 -2.121821835e-07 -2.0463893198e-07 -1.0217512949e-06 2.8057586069e-07 1.6457611637e-07 
-2.272413597e-06 -4.809875415e-07 5.8899870255e-07 -1.2931357357e-05 -2.2655373433e-06 2.0750685754e-06 -9.4925315604e-07 -2.2128093615e-07 9.9935638817e-08 
-1.4310571127e-06 -6.9077136159e-07 -6.2904347535e-08 -1.2049329854e-05 -2.9346198746e-07 4.535830617e-06 -1.1029830321e-06 -3.8031280868e-07 -2.0384242658e-08 
-2.5423311604e-06 -8.9100114323e-07 -8.5956101892e-07 -2.7951932305e-06 -1.8175761893e-06 -3.3165271466e-07 -1.0615993074e-06 5.9379095927e-07 2.0527166388e-08 
3.9732947013e-10 1.4796861994e-06 3.1926905349e-07 -3.7129507066e-06 -2.3152208171e-06 -1.1038773074e-06 -1.8462869477e-06 -4.8822376349e-07 -1.3497931498e-07 
-5.0548803278e-07 1.2221693095e-06 1.2216765311e-07 -1.6697017648e-07 4.3003626752e-07 4.1444864511e-07 -3.264670812e-07 -4.7382054376e-07 2.0067393214e-07 
-1.3706495777e-06 3.6890338761e-07 -1.3519343519e-07 -5.2582114273e-06 -2.0170514546e-06 -3.4649548606e-07 -1.9566449193e-07 -1.7093218074e-07 1.6750975069e-07 
-9.4489353982e-07 9.9962194289e-08 -1.975934104e-08 -2.2739794419e-06 -7.2820595227e-07 -1.2021954844e-07 -1.252735885e-05 -1.446796202e-06 -1.4801466434e-06 
-1.5792622328e-06 -1.3489420734e-07 -4.9414059177e-07 -1.2913054555e-06 -6.1330466642e-07 2.0771211727e-09 -9.7230387928e-06 -5.330311022e-07 -4.5120338673e-06 
-1.0875514791e-06 -3.9097186955e-07 5.4095280135e-09 -2.5466383394e-06 -7.5609065197e-07 7.6694387692e-07 -2.7667006075e-06 -1.6212013201e-06 1.8118345312e-07 
-1.0227276575e-06 6.0700629275e-07 -3.2600905746e-08 -3.0266998817e-08 1.4966421712e-06 -3.6325649302e-07 -3.7102914414e-06 -2.4089974927e-06 9.5661609872e-07 
-1.8538580339e-06 -4.3580183864e-07 7.3462054004e-08 -4.4954928596e-07 1.2386121606e-06 -1.3729777638e-07 -1.3440040508e-07 4.611742345e-07 -4.601448491e-07 
-5.1594127332e-05 3.8170340474e-06 1.6277302094e-07 -5.100293097e-05 -4.5508092826e-06 2.2423931726e-07 -4.9158714313e-05 -1.1685338697e-05 3.7833502381e-07 
-4.614278888e-05 -1.5207300828e-05 8.6331375926e-07 -4.3574764743e-05 -1.4118075764e-05 1.6899713768e-06 -4.2352278822e-05 -1.0732447588e-05 2.6116277811e-06 
-4.2010392811e-05 -6.7596556072e-06 3.4904270858e-06 -5.1653236834e-05 8.0287647418e-06 1.3544723575e-07 -5.1395378889e-05 -4.144573126e-07 1.9435617467e-07 
-5.0240248853e-05 -8.4135125848e-06 2.6277897862e-07 -4.7726591481e-05 -1.403556503e-05 5.6643237929e-07 -4.4705530861e-05 -1.5116461069e-05 1.2451943302e-06 
-4.2840066669e-05 -1.258554742e-05 2.1437370058e-06 -4.2119980868e-05 -8.756785772e-06 3.060448998e-06 -4.1980163421e-05 -4.7841819932e-06 3.9186342516e-06 
-5.1531215467e-05 3.7040214104e-06 2.1480152404e-07 -5.0867428377e-05 -4.71502554e-06 4.574195413e-07 -4.8922003696e-05 -1.1911092832e-05 9.043757336e-07 
-4.5747033633e-05 -1.5491913831e-05 1.4872165721e-06 -4.3115714468e-05 -1.4416243779e-05 2.0591071987e-06 -4.181806476e-05 -1.1046915652e-05 2.7513583633e-06 
-4.1461471193e-05 -7.0728081407e-06 3.5188177474e-06 -5.1600728617e-05 7.9360461197e-06 1.422625205e-07 -5.1306359298e-05 -5.4618356059e-07 3.1384867886e-07 
-5.0060923224e-05 -8.5853940457e-06 6.4903307476e-07 -4.7394373625e-05 -1.4295743446e-05 1.2038755141e-06 -4.4250286511e-05 -1.541129864e-05 1.7760625504e-06 
-4.232307147e-05 -1.2885420961e-05 2.3965810844e-06 -4.1575134053e-05 -9.0725878263e-06 3.1255799014e-06 -4.1427471545e-05 -5.1016098287e-06 3.9210349325e-06 
-4.4808008108e-05 -5.7256469806e-06 3.3587745102e-06 -4.7396396452e-05 -8.5410991416e-06 2.4046795761e-06 -4.9807958912e-05 -1.1119517972e-05 1.4835646099e-06 
-4.3409852966e-05 -4.2771229356e-06 3.8464452885e-06 -4.6151302171e-05 -7.16111767e-06 2.8806075206e-06 -4.8571098218e-05 -9.8388626379e-06 1.9436671252e-06 
-5.1114075883e-05 -1.2391605566e-05 1.1051341174e-06 -5.7941583877e-05 -1.2519550461e-05 -4.424978452e-07 -6.1819019726e-05 -3.9058426037e-06 -5.2264192708e-06 
-5.504884765e-05 -1.2988315407e-05 5.0141586603e-07 -6.0370514852e-05 -9.9521395499e-06 -3.3607508316e-06 -5.4317815278e-05 1.6980693884e-07 -1.1396522417e-06 
-4.4257516641e-05 -6.0435013796e-06 3.3763317547e-06 -4.6851398509e-05 -8.8690414724e-06 2.3946880036e-06 -4.9262959847e-05 -1.1459149035e-05 1.384489217e-06 
-4.2856776581e-05 -4.5951072446e-06 3.8556320599e-06 -4.5596610778e-05 -7.4866847757e-06 2.8878359802e-06 -4.8021103618e-05 -1.015850088e-05 1.8939796726e-06 
-5.0536867873e-05 -1.2724703241e-05 9.1480475644e-07 -5.7426218953e-05 -1.2547912394e-05 1.8484774411e-06 -6.2209461504e-05 -4.0466375404e-06 6.5992853882e-06 
-5.455246358e-05 -1.3404123667e-05 7.6230710004e-07 -6.1238593977e-05 -1.0308601565e-05 5.0191388775e-06 -5.2198459579e-05 -3.9892887484e-07 1.7011598437e-06 
-1.1280242891e-05 -6.555671587e-06 -1.5043110715e-06 -8.9522641442e-06 -3.965916311e-06 -2.3062220272e-06 -1.4010632318e-05 -6.8871489732e-06 -7.0308052924e-07 
-2.2713798434e-05 -8.6145511037e-06 -3.7624321467e-07 -1.9825308046e-05 -7.6416771407e-06 -4.1169166898e-07 -2.5396814057e-05 -9.9483165334e-06 -3.5858744611e-07 
-3.4029796629e-05 -5.9068862856e-06 -1.3382637527e-07 -3.9785242193e-05 -1.3351242535e-07 -2.4192481041e-08 -4.5560854444e-05 6.0046474617e-06 3.4513867028e-08 
-3.0995758673e-05 -8.721923538e-06 -2.0690898658e-07 -3.6998453868e-05 -3.0439735463e-06 -5.1179701582e-08 -4.2617043472e-05 2.9000000448e-06 8.2438402079e-09 
-4.8582330366e-05 9.1142046228e-06 6.8337807183e-08 -1.1600507549e-05 -5.8309786554e-06 8.6683581246e-07 -8.6200854798e-06 -4.0443075823e-06 1.9412819426e-06 
-1.4183890868e-05 -6.8918322145e-06 -1.3328280851e-07 -2.2832515443e-05 -8.6422611639e-06 -3.5884501118e-07 -1.9921613581e-05 -7.6784675198e-06 -3.1022864067e-07 
-2.5578811348e-05 -1.00007107e-05 -4.7248323015e-07 -3.4068148947e-05 -6.0451686964e-06 -2.6911405374e-07 -3.9774683033e-05 -2.5190978287e-07 -5.3689473789e-08 
-4.5520421805e-05 5.9066102424e-06 6.2917984354e-08 -3.1209254944e-05 -8.7476130286e-06 -4.3158875205e-07 -3.6994971012e-05 -3.1753466391e-06 -1.566162879e-07 
-4.259393491e-05 2.7886797286e-06 1.5817000735e-08 -4.8535096259e-05 9.023345886e-06 8.6034918166e-08 -5.4728045851e-06 -1.8739304693e-06 -3.9233264357e-08 
-2.9647715567e-05 4.1024655056e-06 2.6066897149e-08 -3.6828718273e-05 -1.2533280777e-05 2.4984958032e-06 -4.8285954529e-05 -1.4335043097e-05 1.6615969431e-06 
-3.1759548434e-05 -1.2507948435e-05 1.0362666869e-06 -4.3129061291e-05 -1.3122006999e-05 2.4638408248e-06 -5.1081470547e-05 -1.4867442178e-05 9.4140046904e-07 
-3.6034903413e-05 -1.2826380837e-05 -2.8163891739e-06 -4.8234769386e-05 -1.4960851069e-05 -1.2997669202e-06 -3.1694906564e-05 -1.300745528e-05 -1.8169734707e-06 
-4.3085071325e-05 -1.3546275083e-05 -2.4872283923e-06 -5.0284938974e-05 -1.5103679328e-05 -2.350405197e-07 -5.2579948778e-05 -1.4078727204e-05 5.8088510804e-07 
-1.6951691043e-05 -7.1495175357e-06 -3.7546928504e-07 -2.7798344849e-05 -1.1693964106e-05 -4.8269902969e-07 0 0 0 
0 0 0 0 0 0 0 0 0 
0 0 0 0 0 0 0 0 0 
0 0 0 0 0 0 0 0 0 
0 0 0 0 0 0 0 0 0 
0 0 0 0 0 0 0 0 0 
0 0 0 0 0 0 0 0 0 
0 0 0 0 0 0 0 0 0 
0 0 0 0 0 0 0 0 0 
0 0 0 0 0 0 0 0 0 
0 0 0 0 0 0 0 0 0 
0 0 0 0 0 0 0 0 0 
0 0 0 0 0 0 0 0 0 
0 0 0 0 0 0 0 0 0 
0 0 0 0 0 0 0 0 0 
0 0 0 0 0 0 0 0 0 
0 0 0 -6.5496118766e-07 -6.1709517203e-07 -2.7019274845e-08 -2.7227392459e-05 -1.893659637e-05 5.1641215898e-07 
-5.3817197782e-06 -7.3501408381e-06 5.277106473e-08 -5.0273631301e-05 -1.437458263e-05 1.3836456728e-06 -4.3624924432e-05 -3.0044496997e-06 4.0972631326e-06 
-4.743328861e-05 -2.9034849367e-06 3.6171875752e-06 -5.1441651988e-05 -2.7656585182e-06 3.1050343514e-06 -5.4986052529e-05 -3.600291193e-06 2.4792801557e-06 
-2.8700998195e-07 -2.1227519421e-07 5.3952403816e-08 -2.8346749003e-07 -2.0745786085e-07 -9.147631194e-08 -1.1093132838e-06 -1.3945794342e-06 -3.8335086948e-07 
-1.1520530439e-06 -1.2944870312e-06 2.5765762385e-07 -4.2806389417e-05 -2.9248941491e-06 4.2168490844e-06 -4.2529702263e-05 -3.083975766e-06 4.2162258318e-06 
-4.4712224421e-05 -2.9139439373e-06 3.9744806062e-06 -4.4436048716e-05 -3.0752612707e-06 3.9810823221e-06 -4.8546655786e-05 -2.7752591044e-06 3.4859555434e-06 
-4.6609745773e-05 -2.8609234246e-06 3.7322288827e-06 -4.5519649339e-05 -2.9759999993e-06 3.8585280559e-06 -4.6332019489e-05 -3.0253667082e-06 3.7453419219e-06 
-5.2598001825e-05 -2.7132857768e-06 2.9707235825e-06 -5.0559868463e-05 -2.6955479528e-06 3.2351310554e-06 -4.9403212017e-05 -2.813462661e-06 3.3680633582e-06 
-4.8270354055e-05 -2.9410908785e-06 3.5010901689e-06 -5.0284247846e-05 -2.8720941066e-06 3.2452671725e-06 -5.5131550917e-05 -5.1639754759e-06 3.0303214449e-06 
-5.4622325689e-05 -2.8638503517e-06 2.7779392086e-06 -5.3484889176e-05 -2.8102465419e-06 2.8275381242e-06 -5.2337391692e-05 -2.8737983254e-06 2.9632121141e-06 
-5.4333771697e-05 -3.0422588049e-06 2.5587440987e-06 -4.6331490831e-05 -1.7064838945e-05 1.6014164023e-06 -5.3324891573e-05 -1.0947086717e-05 2.7957268872e-06 
-5.4453494934e-05 -7.794208457e-06 2.0419978083e-06 -5.2997768114e-05 -1.1065028812e-05 7.4060133552e-07 -5.4905127366e-05 -5.2721800001e-06 1.518155997e-06 
-2.0041173035e-05 -1.8503268502e-05 -1.1961555566e-07 -3.4047686803e-05 -1.8546536367e-05 8.1460487259e-07 -4.0701923126e-05 -1.8297256499e-05 7.9388448026e-07 
-3.4107322522e-05 -1.880134923e-05 5.1409146021e-07 -4.6431647285e-05 -1.7157976806e-05 6.0113170913e-07 -2.7193009551e-06 -4.045417603e-06 -9.4444480295e-07 
-8.8503946216e-06 -1.159093357e-05 -9.0431113548e-07 -1.3144039527e-05 -1.664235843e-05 3.9640283614e-07 -2.0082490553e-05 -1.8272142954e-05 1.0173983841e-06 
-8.6618837043e-06 -1.1527965119e-05 1.495832504e-06 -1.8527529639e-06 -2.2716753119e-06 -1.049770205e-07 -2.926856053e-06 -4.2268871763e-06 6.8867908107e-07 
-4.7501047127e-05 1.2145544832e-05 3.5915705825e-08 -3.0637626134e-05 1.2767496683e-05 -1.4517661142e-07 -3.9298970101e-05 1.2363448857e-05 -7.3335083808e-08 
-2.1499456355e-05 1.2676161101e-05 -1.861791361e-07 -1.0358682015e-06 1.1312090073e-06 -1.8165703114e-08 -6.0388172375e-06 9.3837998807e-06 -7.9814837454e-08 
-2.0272544043e-06 4.601279658e-06 4.4315752504e-08 -1.2774748549e-05 1.1698886935e-05 -1.8694042051e-07 -4.8160976766e-07 3.7219628604e-07 1.3898798567e-07 
-4.9431576948e-07 3.7005012037e-07 -1.7407255535e-07 -1.3628105641e-06 2.0107031572e-06 3.3502713423e-07 -1.2890458623e-06 2.1185059984e-06 -4.8593471277e-07 
-4.9546014522e-05 1.2121841323e-05 6.6776299725e-08 -4.956976474e-05 1.216635349e-05 6.7503898559e-08 -4.5466823789e-05 1.2186977506e-05 -1.1569101374e-09 
-4.5448338255e-05 1.2147501718e-05 1.3295479296e-08 -1.5775229604e-06 3.8028297347e-06 -2.8087905307e-07 -2.7645178593e-06 5.5079318305e-06 -3.1504802567e-07 
-1.462170069e-06 3.0542963936e-06 -1.0390217951e-07 -1.578278013e-06 3.884856273e-06 2.3539370785e-07 -4.8010253562e-06 7.9496098045e-06 -5.3249695797e-07 
-7.3012029551e-06 1.0496300928e-05 -3.8671405774e-07 -3.7929002225e-06 6.5335940058e-06 3.3122796883e-08 -4.7635103333e-06 7.9594878214e-06 4.4838594373e-07 
-2.6740768807e-06 5.4441793008e-06 4.1570780708e-07 -1.0783842395e-05 1.1392078201e-05 -2.5567859539e-07 -1.4845818487e-05 1.200719622e-05 -2.4239463873e-07 
-8.9234481575e-06 1.1121586701e-05 -1.7914817655e-07 -7.3529042348e-06 1.0377945488e-05 8.1477785083e-08 -1.0770357912e-05 1.1370343847e-05 -1.0602849796e-07 
-1.9230574568e-05 1.2502439325e-05 -2.3165150621e-07 -2.3790149956e-05 1.2767302749e-05 -1.9442090651e-07 -1.7002324593e-05 1.228835575e-05 -1.9044578497e-07 
-1.922491255e-05 1.2512778944e-05 -1.471058455e-07 -1.4839864923e-05 1.2003141086e-05 -1.3446752899e-07 -2.8376544509e-05 1.2794260129e-05 -1.5679881826e-07 
-3.2868745686e-05 1.2675983858e-05 -1.1074800868e-07 -2.6085670316e-05 1.2815673519e-05 -1.7207927663e-07 -2.8374196054e-05 1.281351184e-05 -1.6030240621e-07 
-2.3785866394e-05 1.2775241991e-05 -1.652361666e-07 -3.7197971388e-05 1.2456415378e-05 -7.3235332088e-08 -4.136448829e-05 1.2259283695e-05 -3.4419265497e-08 
-3.5063885079e-05 1.2589533855e-05 -1.1130927369e-07 -3.2864531137e-05 1.2698106499e-05 -1.4698744077e-07 -3.7202885747e-05 1.2486342243e-05 -1.1447802248e-07 
-4.3419035763e-05 1.2206746407e-05 -2.2659762684e-08 -4.1378969292e-05 1.2292507297e-05 -6.4280537999e-08 -8.604001374e-07 -4.2811665824e-07 -7.9059675591e-08 
-8.5246793526e-07 -7.3041032414e-07 -8.8888573023e-08 -6.6647938921e-07 -2.4451237025e-07 -1.2364805911e-08 6.2107153629e-08 2.853650214e-07 8.1533598318e-08 
-4.0254594441e-07 1.6341259262e-07 2.1261225145e-08 -1.7162987602e-06 -9.7836034729e-07 -1.0368659001e-07 -9.0752939547e-07 -3.3596881588e-07 6.369234309e-09 
-4.8177769011e-07 -3.2550860635e-07 -8.2202456701e-08 -4.7163786944e-07 -1.8518019177e-07 -4.7888470673e-08 -1.0756395556e-06 -4.4691647838e-07 -7.817164176e-08 
-2.2771520971e-07 -2.5444672598e-07 -1.536673154e-08 -5.3480272087e-07 -5.8280823442e-08 5.3160745575e-09 -1.2251397934e-06 -9.3813525516e-07 -9.9137930732e-08 
-8.2062732223e-07 -1.3782147798e-07 4.3344616372e-08 -6.1337301091e-08 -1.6637620394e-07 -9.1855795449e-08 9.4243834821e-08 5.789728859e-07 1.7478771638e-07 
-5.7967775774e-07 -2.8767889412e-07 -1.891533664e-08 -6.069929707e-06 1.9913426264e-06 2.7802536333e-06 -1.2845980819e-06 -3.8562918937e-07 4.6797878483e-07 
-2.3131235044e-06 -1.3707821628e-06 -7.2090770265e-07 -1.5333804973e-06 -7.6767288162e-07 -5.4375820868e-08 -2.0993909563e-06 -1.6211295666e-06 -2.3721934287e-07 
-1.0540384814e-07 1.3172623753e-08 2.5912045291e-09 -2.2184019382e-07 4.7503723527e-08 6.8041459441e-09 -3.0885044649e-07 3.6867215565e-08 -2.8366697206e-08 
-2.8620703411e-07 -8.3598685476e-09 -4.1944673746e-09 -2.6917233725e-07 -5.5584039926e-08 -1.8984581142e-08 -5.0005814866e-07 6.7837545564e-08 1.687303243e-08 
-2.480735371e-07 -7.8710007223e-08 -3.5148675357e-08 -2.555294776e-07 -1.1316573164e-07 -4.4649814236e-08 -3.9739255495e-07 -1.1519578269e-07 -2.5188880542e-08 
-5.7833631608e-07 -2.0653441879e-07 -3.2506447872e-08 -6.0404750755e-07 -1.5189727829e-07 -5.6297961502e-09 -2.5179710093e-07 -1.4395852263e-07 -5.9932365728e-08 
-2.1461644284e-07 -1.6315217014e-07 -5.4832550753e-08 -4.9309676888e-07 -2.50767993e-07 -6.8071756047e-08 -1.2438380997e-07 -1.6246972477e-07 -4.0122964088e-08 
-7.9180542002e-09 -6.5374190897e-08 -8.0759989719e-09 -3.2333264928e-07 -3.1245356939e-07 -5.8967280108e-08 -6.5789829691e-07 -5.0341132259e-07 -8.8066524784e-08 
-5.2086152696e-07 -5.1230178537e-07 -5.0258937254e-08 9.1266587782e-08 5.2077382837e-08 4.6695313324e-08 1.2610897088e-07 2.3228407189e-07 9.6742582656e-08 
-5.8902078492e-08 -1.8086520043e-08 2.9814125568e-08 7.1748963092e-08 7.4713251709e-07 1.778919001e-07 -1.2449253806e-06 -5.3696580365e-07 -6.3174070674e-08 
-9.851851575e-07 -3.2153893272e-07 -4.1945341306e-08 -8.944629859e-07 -3.7837696518e-07 -6.4505137935e-08 -1.3617954352e-06 -6.6579340375e-07 -9.0962338421e-08 
-8.2290865394e-07 4.6325034323e-07 1.604096062e-07 -1.3726917561e-06 -3.5086957351e-07 5.0596507505e-07 -9.7003490568e-07 -1.6126228571e-07 1.7758246174e-07 
-7.0918857226e-07 2.6982817418e-08 8.9165137128e-08 -6.9136428277e-07 -9.9457996723e-08 1.5605773185e-08 -7.4395550342e-07 -2.9464160561e-07 2.0884371949e-08 
-1.1140493698e-06 -3.5783485137e-07 -4.6233879428e-08 -1.9029859136e-06 -1.3473698591e-06 -1.9572665258e-07 -1.5902427707e-06 -1.2151170041e-06 -1.1089156299e-07 
-3.4013448563e-07 4.4599575071e-07 6.3853176172e-08 -4.7230582398e-07 -1.2364086289e-07 1.0073587998e-08 -6.294210142e-07 -5.4897829327e-07 -5.0269293745e-08 
-9.2234182638e-07 -5.93173133e-07 -9.9954451499e-08 -1.2075910109e-06 -6.6133631445e-07 -1.0075512471e-07 -1.3212530791e-06 -9.2311158604e-07 -1.1587941552e-07 
-7.1732429206e-07 -4.1405837004e-07 -8.3441391877e-08 -7.2910821357e-07 -2.9009213228e-07 -3.4990296828e-08 -7.7666148294e-07 -3.1770879652e-07 -1.5271525197e-09 
-9.1326144528e-07 -3.4214735984e-07 -4.8588142586e-08 -6.6447048783e-07 -3.011447935e-07 -5.9861608232e-08 -1.0244012695e-06 -4.6925667765e-07 -8.3423915663e-08 
-1.0227206462e-06 -8.6152571061e-07 -9.4611263179e-08 -7.364513041e-07 -2.1844862923e-07 4.4797563885e-09 -8.651949441e-07 -4.1794610593e-07 4.6226053313e-08 
-8.5207203345e-07 -7.183546605e-07 7.4378432915e-08 -6.3628052232e-07 -2.6976291604e-07 7.3295351465e-08 8.6099252243e-08 2.7772874556e-07 -8.0131999702e-08 
-3.870453812e-07 1.0132900227e-07 -8.0574412565e-09 -1.9100633749e-06 -1.0389834373e-06 6.5961102173e-08 -8.6385556711e-07 -3.3274029287e-08 -7.2623775148e-08 
-4.9046068541e-07 -3.1624145084e-07 5.5897400882e-08 -4.582249752e-07 -1.8805898511e-07 4.630480051e-08 -1.1072862683e-06 -4.6924662916e-07 6.9608843197e-08 
-2.278832715e-07 -2.6822103095e-07 2.8998774258e-08 -4.9644918169e-07 -1.1445563036e-07 4.1314386445e-08 -1.2247393129e-06 -8.7398249669e-07 1.0818224444e-07 
-8.3902627326e-07 -4.1758544214e-07 1.4775312412e-07 -9.8257027565e-08 -1.6049888754e-07 1.011376974e-07 9.7669275669e-08 5.8348718999e-07 -1.8624263479e-07 
-6.1436229165e-06 1.3940278503e-06 -2.3520063146e-06 -9.5623521306e-07 -1.2459214033e-07 -2.1968789225e-07 -1.2839781871e-06 -5.378641702e-07 -3.4643332228e-07 
-1.4725019214e-06 -8.0023089565e-07 8.9998939018e-09 -2.0827202013e-06 -1.1926907033e-06 5.7745188639e-07 -2.2245192408e-06 -1.6387553697e-06 1.596471641e-07 
-2.1164983566e-07 2.3564767292e-08 -2.4209478273e-09 -1.2082316626e-07 9.8391670071e-09 8.3938523842e-09 -3.266498163e-07 2.971354011e-09 4.1766368945e-08 
-2.5916554174e-07 -7.1807796302e-08 2.5588188087e-08 -2.8380071003e-07 -2.5761935838e-08 1.8849383708e-08 -4.9077197889e-07 4.4724724169e-08 8.5135672296e-09 
-2.5106817435e-07 -1.022268136e-07 4.1247328988e-08 -2.4376474163e-07 -8.6623534199e-08 3.5019644901e-08 -5.5694270346e-07 -2.2022533152e-07 5.1329930364e-08 
-3.8802956055e-07 -1.3369518612e-07 3.4103805103e-08 -5.6884442108e-07 -1.9659782016e-07 5.269891023e-08 -2.1990766188e-07 -1.6137384284e-07 5.0958635131e-08 
-2.518260082e-07 -1.322136031e-07 4.9518662336e-08 -4.8558331675e-07 -2.4671700126e-07 4.9450442316e-08 -1.5970499452e-09 -7.409835192e-08 1.3810716129e-08 
-1.3383148488e-07 -1.63273013e-07 4.3406572344e-08 -6.6992547947e-07 -4.9266103796e-07 6.1641780624e-08 -3.4387618282e-07 -3.0662083717e-07 5.4580208331e-08 
-5.245988283e-07 -5.1227712326e-07 5.7393214474e-08 1.3523343736e-07 2.6095703535e-07 -1.0188944206e-07 8.7871170701e-08 5.4606970928e-08 -4.1961514938e-08 
-4.6234606762e-08 -2.5369266576e-08 -1.7506044547e-08 8.5497939984e-08 7.5254524224e-07 -1.9177952413e-07 -1.0213230581e-06 -2.9753867203e-07 -4.1231522122e-08 
-1.221259663e-06 -5.335107028e-07 4.5368288433e-08 -9.5034455617e-07 -2.8015568825e-07 4.2985288147e-09 -1.3801134329e-06 -6.4308243979e-07 5.3441056843e-08 
-8.256814076e-07 2.4218143487e-07 -4.9765423593e-08 -8.9859545103e-07 -2.4251359391e-07 7.0269068601e-08 -9.535777675e-07 -6.7406586919e-07 -4.2898486436e-08 
-8.1541209615e-07 5.1767746296e-08 1.3434734462e-08 -6.6696203017e-07 -2.5232358265e-07 7.747529481e-08 -7.8588001316e-07 -3.9558779616e-07 1.1994370717e-07 
-1.8657564831e-06 -1.2168410311e-06 1.6973238959e-07 -1.1040142309e-06 -3.4428492768e-07 4.6250969959e-08 -1.669024601e-06 -1.2280423867e-06 1.0420606767e-07 
-3.3011669165e-07 4.5709030887e-07 -5.2598198533e-08 -4.7729253269e-07 -9.657281861e-08 6.7667737335e-09 -6.3345915217e-07 -5.2324881513e-07 6.2030262309e-08 
-1.3820431597e-06 -9.6063907808e-07 7.79354048e-08 -1.2094899679e-06 -6.7410079387e-07 4.5917259351e-08 -9.3806053794e-07 -5.9416586605e-07 4.7622882201e-08 
-7.1409422471e-07 -4.0118563322e-07 5.0179587472e-08 -8.4636784863e-07 -3.1806683788e-07 3.8590206179e-08 -6.9453411067e-07 -2.5350738467e-07 8.0519393512e-08 
-7.1115538369e-07 -2.9097445469e-07 5.3976794768e-08 -6.5459544403e-07 -2.9517602036e-07 4.7056790184e-08 -1.0333847913e-06 -4.6713064074e-07 6.2500536965e-08 
-1.0202085485e-06 -8.4960437042e-07 9.7552694432e-08 -7.1374792221e-07 -3.1708270033e-07 1.0042560407e-07 -4.1699978571e-05 -4.944070302e-06 3.9199805059e-06 
-4.2569188547e-05 -1.2717634497e-05 2.2642809833e-06 -4.1837821551e-05 -8.9123916136e-06 3.0922267361e-06 -4.4449275719e-05 -1.5203698583e-05 1.5077857995e-06 
-5.1632994129e-05 7.9803703523e-06 1.3815944365e-07 -5.1367142785e-05 -4.7363891656e-07 2.5141829629e-07 -5.0155544445e-05 -8.4697890376e-06 4.5250907653e-07 
-4.757117868e-05 -1.4087113903e-05 8.8049940225e-07 -4.1561557908e-05 -4.04859437e-06 4.127550525e-06 -4.1838506559e-05 -3.889331612e-06 4.128237848e-06 
-4.1848424474e-05 -5.8490174169e-06 3.707930473e-06 -4.1573383715e-05 -6.0059387621e-06 3.7160925524e-06 -5.1647813723e-05 1.0093998951e-05 1.1848360426e-07 
-5.1621487953e-05 1.0049763829e-05 1.1768063681e-07 -5.1624221795e-05 5.9009360486e-06 1.53407794e-07 -5.1597413228e-05 5.848958493e-06 1.6901202029e-07 
-5.1213487455e-05 -2.5238228454e-06 2.483106201e-07 -5.1505016287e-05 1.6647956515e-06 1.9772690018e-07 -5.1569028623e-05 3.7614035949e-06 1.874965849e-07 
-5.1470476602e-05 1.6023571722e-06 2.3798526591e-07 -4.9683033761e-05 -1.0150209139e-05 4.1921627702e-07 -5.0640618434e-05 -6.5641399528e-06 3.1300212779e-07 
-5.0949081492e-05 -4.614358183e-06 3.3756753962e-07 -5.1155699067e-05 -2.5982297158e-06 3.373721204e-07 -5.0550660522e-05 -6.6463265007e-06 4.6195581058e-07 
-4.6852536263e-05 -1.4777243841e-05 8.6387658709e-07 -4.8405613775e-05 -1.3010475462e-05 6.0912255843e-07 -4.904455156e-05 -1.1730632969e-05 6.3660164492e-07 
-4.9591800874e-05 -1.0247251187e-05 6.5727828907e-07 -4.8270913451e-05 -1.3129956202e-05 8.9830419378e-07 -4.3963900428e-05 -1.4753542514e-05 1.5793455167e-06 
-4.5267238131e-05 -1.5308187762e-05 1.187965361e-06 -4.5940045736e-05 -1.5273759603e-05 1.1733470402e-06 -4.5055556622e-05 -1.5455223241e-05 1.4843967552e-06 
-4.6670032156e-05 -1.491827309e-05 1.1809809018e-06 -4.2420027321e-05 -1.1756930365e-05 2.4249852522e-06 -4.303868768e-05 -1.3454602918e-05 1.9880135014e-06 
-4.3337133555e-05 -1.4225218226e-05 1.8791747736e-06 -4.2807594443e-05 -1.3606007828e-05 2.147738407e-06 -4.3726432211e-05 -1.4905756175e-05 1.8016498273e-06 
-4.1910234398e-05 -7.8389589248e-06 3.2875761026e-06 -4.2072688189e-05 -9.8229345553e-06 2.8613882088e-06 -4.2074687741e-05 -1.0880608918e-05 2.6806251066e-06 
-4.216164793e-05 -1.190998278e-05 2.5188514195e-06 -4.1806005036e-05 -9.9816425689e-06 2.912273174e-06 -4.1731729687e-05 -6.915927363e-06 3.5044839027e-06 
-4.1636785775e-05 -7.995286703e-06 3.3095678464e-06 -5.7625615216e-05 -6.8335895189e-06 1.1042202066e-06 -5.3187240727e-05 -6.7173978647e-06 1.9655244579e-06 
-3.6121584986e-05 -6.2371288002e-06 2.44970214e-07 -2.4015137724e-06 -1.7434184343e-06 2.2845107374e-08 -4.763928658e-05 -5.025089625e-06 3.12555237e-06 
-4.6664951768e-05 -9.3742638427e-06 -6.1832766172e-07 -5.4195914246e-05 -9.2933616703e-06 1.2058784821e-06 -5.584273048e-05 -5.4973590278e-06 2.049657291e-06 
-5.2624643943e-05 -5.1180468156e-06 7.3595299481e-07 -5.9126751302e-05 -8.9932332937e-06 -7.5921249796e-07 -5.0601540816e-05 -5.3504479807e-06 2.6657286517e-06 
-1.7054776857e-05 -2.4986910656e-06 8.8211733138e-07 -5.0717318402e-05 -8.2270633949e-06 1.9780206922e-06 -1.4279137756e-05 -2.6735106546e-06 1.115597184e-06 
-6.5523776528e-07 -1.1719827482e-06 -4.9837947156e-07 -4.5297926155e-05 -4.254449784e-06 3.6045276933e-06 -2.2063025862e-05 -5.5595052795e-06 4.8251725492e-07 
-3.8718397504e-05 -5.044245325e-06 5.2301144309e-07 -5.5781093871e-05 -8.4244062017e-06 -2.5620956436e-06 -5.5690469154e-05 -1.0600277558e-05 4.7108396524e-07 
-5.3543873916e-05 -1.173393661e-05 9.5295665524e-07 -5.1929331724e-05 -1.02618389e-05 1.3563363e-06 -4.6718871163e-05 -3.9141513922e-06 3.4869943499e-06 
-4.8649957096e-05 -3.8407629699e-06 3.2409969347e-06 -4.6211669789e-05 -5.3824347787e-06 3.2426401596e-06 -5.013931769e-05 -4.0354772313e-06 3.0126315634e-06 
-5.2212973803e-05 -4.0184445969e-06 2.7620970118e-06 -4.9082422739e-05 -5.1932692449e-06 2.8975283318e-06 -5.480048188e-05 -4.1701678287e-06 2.4484286093e-06 
-5.6660865308e-05 -4.9834891981e-06 2.8778778832e-06 -5.3522984076e-05 -4.8522522055e-06 2.4288254869e-06 -5.463496506e-05 -5.9810629742e-06 2.0035204208e-06 
-5.1876095109e-05 -6.063847141e-06 2.319532905e-06 -5.5189315146e-05 -7.8261938604e-06 2.3180146726e-06 -4.7520628098e-05 -9.3636066791e-06 8.6305079184e-07 
-5.6780227328e-05 -5.3470412232e-06 1.5265709489e-06 -3.0299367937e-05 -9.2094839664e-06 7.7232018504e-07 -1.4993172287e-05 -7.5350749954e-06 -3.0587401272e-07 
-3.9189757229e-05 -6.0340973336e-06 4.3242179778e-07 -4.6232711552e-05 -5.4970982021e-06 1.165625287e-07 -2.5817543893e-05 -3.293231365e-06 6.4419422247e-07 
-5.4040319043e-06 -6.41633414e-06 -9.8774665074e-07 -1.5549208204e-06 -2.5140752301e-06 -6.9467178759e-07 -6.9141138375e-06 -1.3683253134e-06 3.2860696604e-07 
-8.6489439175e-07 -1.0208454586e-06 -7.3380970041e-08 -2.0460569906e-06 2.6878286493e-07 3.5101917167e-07 -4.6363774342e-06 -3.1174718394e-07 7.1816418463e-07 
-9.9037254511e-06 -2.7772462356e-06 1.0206707905e-06 -5.5081835237e-06 1.2023228675e-09 6.3526664556e-07 -1.6085489447e-05 -1.7695588149e-06 9.9203475916e-07 
-2.6860950716e-05 -5.5558395832e-06 5.6679523685e-07 -6.1298114932e-05 -8.6980688332e-06 -2.498176371e-06 -5.8738400968e-05 -1.0405750076e-05 -9.3495667448e-07 
-5.6650909574e-05 -9.1452541627e-06 3.1943881396e-07 -5.7786920845e-05 -8.8058100912e-06 -8.2948484038e-07 -4.7546872058e-05 -6.7701083082e-06 2.7634043468e-06 
-5.0282700425e-05 -9.6526283159e-06 1.7331112096e-06 -4.8977831623e-05 -8.3954764179e-06 2.1958065071e-06 -4.8963196471e-05 -6.8989219749e-06 2.535719207e-06 
-5.0698901951e-05 -6.7830605651e-06 2.3173948733e-06 -5.2364551366e-05 -8.7687976762e-06 1.5889952751e-06 -5.5635088064e-05 -6.7545945394e-06 1.5662135112e-06 
-5.3671089008e-05 -7.9287254857e-06 1.5739562409e-06 -5.62612613e-05 -7.8351160199e-06 1.1349640171e-06 -5.6789962515e-05 -5.9987223232e-06 1.5668027822e-06 
-5.2249123471e-05 -7.0989240707e-06 1.071127963e-07 -5.5822045572e-05 -7.8097158775e-06 4.6591966798e-08 -4.0950376404e-05 -7.2896538372e-06 -2.6358153825e-07 
-5.5727250774e-05 -5.8293901466e-06 5.5671051214e-07 -5.7970401172e-05 -7.5451377303e-06 4.2813762882e-07 -5.1961318787e-05 -7.4357054478e-06 1.9725437405e-06 
-2.4301491494e-05 -4.4539074897e-06 7.2237816455e-07 -5.6768724112e-05 -6.9309103477e-06 1.5579344771e-06 -5.2653388478e-05 -7.0551813903e-06 2.002225873e-06 
-3.5913012355e-05 -6.3247869843e-06 1.5848560878e-06 -2.338447772e-06 -1.7767375517e-06 2.4329804163e-07 -4.7089840566e-05 -5.3488363824e-06 3.1426518607e-06 
-4.6573458121e-05 -9.7694902118e-06 2.3928390276e-06 -5.3698509831e-05 -9.7044234636e-06 1.2304505963e-06 -5.5368761972e-05 -5.9321521223e-06 1.9599007907e-06 
-5.2615695311e-05 -5.6716239589e-06 1.7548855325e-06 -5.8266305481e-05 -9.1062361776e-06 2.114728979e-06 -5.0051112488e-05 -5.6936995595e-06 2.669723604e-06 
-1.6980450015e-05 -2.5437751604e-06 6.2594811236e-08 -5.0182010419e-05 -8.5461591747e-06 1.9629517549e-06 -1.4276295431e-05 -2.7771177776e-06 -9.938241429e-08 
-7.9636147995e-07 -1.1233934101e-06 4.9641525394e-07 -4.474715386e-05 -4.5740021591e-06 3.6208760985e-06 -3.8476527362e-05 -4.7370936658e-06 -1.7969702237e-07 
-2.1513796939e-05 -6.5310279926e-06 8.0518739487e-07 -5.5295268612e-05 -7.9840044972e-06 3.7973350726e-06 -5.2952213835e-05 -1.2054716141e-05 8.2536624061e-07 
-5.5063317615e-05 -1.0823809617e-05 1.3378916099e-06 -5.1390668037e-05 -1.063620007e-05 1.3330635896e-06 -4.809828941e-05 -4.1784865324e-06 3.2621275248e-06 
-4.6164359444e-05 -4.2352209143e-06 3.5068066825e-06 -4.5658309201e-05 -5.7020845554e-06 3.2609142373e-06 -5.1666831132e-05 -4.3837244517e-06 2.7489903304e-06 
-4.9588593926e-05 -4.3711222997e-06 3.021182542e-06 -4.8536237673e-05 -5.5206531319e-06 2.9053834955e-06 -5.6068281013e-05 -5.6066386554e-06 1.2058122818e-06 
-5.4324286654e-05 -4.5672240971e-06 2.3662062236e-06 -5.4138921631e-05 -6.3400900595e-06 2.0081622511e-06 -5.2976608044e-05 -5.268088645e-06 2.3987442841e-06 
-5.1337487903e-05 -6.4104173691e-06 2.3404026478e-06 -4.7437224894e-05 -9.9587252714e-06 1.1918083452e-06 -5.4933209041e-05 -8.5904252448e-06 9.5896577005e-07 
-5.6359789994e-05 -5.9037529823e-06 1.7239210742e-06 -1.476171004e-05 -7.8739831697e-06 1.0989072867e-06 -3.035544286e-05 -9.516451792e-06 5.0493314445e-07 
-4.6229956985e-05 -5.5543838889e-06 1.8341156679e-06 -3.9283766892e-05 -6.4473834645e-06 1.300869282e-06 -2.5703467052e-05 -3.5685381146e-06 5.8830064689e-07 
-1.6908546161e-06 -2.6647021072e-06 6.5312311874e-07 -5.5560331951e-06 -6.6686772524e-06 1.5195801738e-06 -6.9163822504e-06 -1.8232564346e-06 2.179806e-07 
-9.6424644128e-07 -9.9928207766e-07 2.1590673353e-07 -2.0055939454e-06 2.1889980951e-07 -2.6045807219e-08 -9.9654282599e-06 -3.243116722e-06 -1.2728870573e-07 
-4.5548455454e-06 -5.0131101633e-07 -1.945431547e-07 -5.5024407423e-06 -2.2804225498e-07 -9.2164407365e-08 -1.6015887857e-05 -2.2068795626e-06 3.9918081315e-08 
-2.6458982885e-05 -6.1971923771e-06 8.5089103277e-07 -5.8589683557e-05 -1.0418824179e-05 2.8493344936e-06 -6.1184628243e-05 -8.8593708458e-06 4.5226155839e-06 
-5.6023710551e-05 -9.4777698935e-06 1.5393266081e-06 -5.751672746e-05 -8.6509995022e-06 2.4379426969e-06 -4.6999725552e-05 -7.0964129694e-06 2.769847418e-06 
-4.8437624703e-05 -8.7181185756e-06 2.1817649278e-06 -4.9742685904e-05 -9.9932771519e-06 1.6840428189e-06 -4.8427191377e-05 -7.2285449968e-06 2.5334255357e-06 
-5.0153700537e-05 -7.1231669585e-06 2.3161720959e-06 -5.1843231672e-05 -9.1092880633e-06 1.6113509413e-06 -5.5694098152e-05 -8.0681187781e-06 1.3670062989e-06 
-5.3155477412e-05 -8.2976781639e-06 1.6341564756e-06 -5.5128182116e-05 -7.0709328766e-06 1.6891987563e-06 -5.619472768e-05 -6.4009095019e-06 1.7083762028e-06 
-4.0723114165e-05 -7.5419719788e-06 1.9492312209e-06 -5.5586528176e-05 -7.7896532641e-06 2.0807145868e-06 -5.2513810837e-05 -7.4574197239e-06 1.9841871554e-06 
-5.5709567448e-05 -6.22703317e-06 1.945981525e-06 -5.740117762e-05 -7.8873785886e-06 1.5988542438e-06 -5.1427342533e-05 -7.7669585393e-06 1.9917033061e-06 
-2.4095761023e-05 -4.6337075255e-06 5.7270368569e-07 -1.1346534021e-05 2.2685778412e-06 -2.5765404304e-07 -2.1528046374e-05 7.7760243956e-07 -2.4533631583e-07 
-3.0767974289e-05 4.4181915386e-06 -1.5060047718e-07 -4.9257144033e-06 3.5234671503e-06 -6.7936884402e-09 -7.1055884195e-06 -1.2780275628e-06 -4.8031935614e-07 
-2.7153586587e-05 -3.3833441902e-06 -2.1311454313e-07 -1.2790628351e-05 -2.9768320596e-06 -4.3358523164e-07 -1.6933634412e-05 4.8720824648e-06 -2.028801671e-07 
-3.9013226014e-05 7.0078191204e-06 -7.5516149784e-08 -1.5464735622e-06 3.1924587013e-06 1.2237016275e-07 -2.0025687859e-05 -3.5642007637e-06 -3.2970541915e-07 
-2.3324498724e-05 6.4919413573e-06 -1.751968685e-07 -1.1798467434e-05 7.066441201e-06 -1.3309908084e-07 -7.0749786741e-06 -4.3206051424e-06 -1.4406991051e-06 
-1.6226290749e-05 6.3426639766e-07 -2.9589457896e-07 -3.2514512681e-05 -9.4641861148e-07 -1.3552641208e-07 -3.7176890408e-06 1.5407122779e-07 -2.1836686658e-07 
-6.1471587104e-07 2.2226005249e-06 5.3369323309e-07 -4.4505974535e-05 9.1540608493e-06 -4.359053697e-09 -6.3211007744e-06 -3.1110256181e-06 -1.9823580974e-06 
-4.312790713e-06 -2.7069468011e-06 -8.5418475013e-07 -9.2111616951e-06 -5.3753938304e-06 -1.5815372195e-06 -2.1377360144e-05 -6.0230154034e-06 -3.5246232376e-07 
-1.8433496542e-05 -5.3064494234e-06 -3.9279232566e-07 -1.482959889e-05 -4.9901967502e-06 -4.6148293588e-07 -1.1945976704e-05 -5.0778134739e-06 -7.0533859669e-07 
-1.6361201217e-05 -3.3347239775e-06 -3.8359370118e-07 -2.7494278631e-05 -7.4558808843e-06 -2.8979344235e-07 -2.4944287808e-05 -5.9068732509e-06 -2.9653468671e-07 
-3.0560461543e-05 -4.6610390226e-06 -1.8245866674e-07 -1.1481350339e-06 3.6746037861e-06 2.3013737847e-07 -2.239521112e-06 4.635090203e-06 5.1022493418e-07 
-7.0142076563e-07 2.3384889495e-06 1.5433061365e-07 -3.7459792747e-06 5.494280097e-06 3.3979729853e-07 -6.756572802e-06 7.033521392e-06 1.3655915848e-08 
-2.7011571729e-06 3.6290688907e-06 1.2113946664e-07 -1.0319517428e-05 9.0099435583e-06 -8.1676566876e-08 -1.4353361869e-05 9.588634736e-06 -1.0905281229e-07 
-8.1568034712e-06 5.2896152868e-06 -9.9623996584e-08 -2.0074518311e-05 9.4137743471e-06 -1.5005109804e-07 -2.4710090606e-05 9.5797623431e-06 -1.6720835314e-07 
-1.694039475e-05 8.4462859382e-06 -1.4536159113e-07 -2.0110468779e-05 5.6871031291e-06 -1.9170113585e-07 -1.4282683407e-05 6.0239999917e-06 -1.7276791451e-07 
-2.8394476699e-05 8.537864398e-06 -1.6388587665e-07 -3.29285389e-05 8.4726751618e-06 -1.4163723951e-07 -2.7062151558e-05 5.4894955077e-06 -1.6924528275e-07 
-3.7061358044e-05 9.7793354938e-06 -1.1489398287e-07 -4.1231113256e-05 9.6545201581e-06 -6.0027938137e-08 -3.4990100104e-05 5.715541777e-06 -1.1195584932e-07 
-4.2313350267e-05 6.4898922752e-06 -2.3826942389e-08 -3.2281312418e-06 -1.0202916727e-06 -2.9503235312e-07 -2.0803140314e-06 4.1826354459e-07 -7.4634958846e-08 
-4.5389079772e-06 -1.8018271769e-06 -4.6793740215e-07 -6.9916575203e-06 -2.7008002923e-06 -7.8706317245e-07 -5.1944912944e-06 -4.7973682043e-07 -3.4952349126e-07 
-1.2431035376e-06 1.808920961e-06 7.5477854059e-08 -2.449958703e-06 1.7473405509e-06 5.7175235487e-09 -4.3174019504e-06 1.7453095068e-06 -1.2058895107e-07 
-2.357916286e-05 -3.5025067454e-06 -2.7650731581e-07 -9.8630852076e-06 -3.8611746324e-06 -6.6610495066e-07 -3.6275310163e-05 -5.2617531074e-07 -8.3455721229e-08 
-3.3246868622e-05 -3.4396304176e-06 -1.2684130039e-07 -2.9866187095e-05 -2.1531961186e-06 -1.744747067e-07 -3.9371770881e-05 3.4346383519e-06 -5.1519602818e-08 
-3.5399277072e-05 2.1718592959e-06 -9.7436882242e-08 -3.1619645285e-05 1.7375786976e-06 -1.4128541394e-07 -7.8432016695e-06 3.0993336869e-06 -1.590571975e-07 
-5.9651299871e-06 1.2707703413e-06 -2.3530630063e-07 -9.2079552241e-06 3.5444286556e-07 -3.622929525e-07 -1.1561511158e-05 4.5878976349e-06 -1.8955574345e-07 
-9.8740520499e-06 -2.1042726763e-06 -4.6716337574e-07 -1.1991020697e-05 -2.0096964235e-07 -3.413982808e-07 -1.4482492639e-05 -1.198291367e-06 -3.6360080723e-07 
-1.3726423215e-05 1.5089694531e-06 -2.8840161591e-07 -1.4111566839e-05 3.5257070108e-06 -2.31578442e-07 -1.6564557012e-05 2.7441444882e-06 -2.476364579e-07 
-2.6202366531e-05 2.5816945971e-06 -1.9144167042e-07 -2.432718999e-05 -1.2750765885e-06 -2.3789825543e-07 -2.897362715e-05 5.3444355424e-07 -1.7458400014e-07 
-2.2418602003e-05 3.6101810906e-06 -2.0477431559e-07 -2.0773550699e-05 -1.366208516e-06 -2.8363971501e-07 -1.9183722766e-05 2.884113569e-06 -2.3015847269e-07 
-1.8862284624e-05 6.9723514973e-07 -2.7012990349e-07 -1.8104459605e-05 -1.3957775573e-06 -3.1570515216e-07 -1.1403724477e-05 2.3036486568e-06 -2.1344532823e-07 
-2.1570253734e-05 7.4262594183e-07 -2.3576995071e-07 -3.0776211762e-05 4.3737451961e-06 -1.653231935e-07 -4.9822525464e-06 3.6321289968e-06 -2.3932179909e-07 
-7.1423932355e-06 -1.1731641509e-06 -1.9877664193e-08 -2.7246578514e-05 -3.4324039374e-06 -2.7619390217e-07 -1.2858933138e-05 -2.9201275872e-06 -2.2951946287e-07 
-1.6969553891e-05 4.8672289726e-06 -2.4233825751e-07 -3.8997817393e-05 6.9276224101e-06 -4.6178485121e-08 -1.5524628115e-06 3.3098237796e-06 -1.6417687602e-07 
-2.0104834515e-05 -3.5940205969e-06 -2.6597565213e-07 -2.334786842e-05 6.4668468285e-06 -2.1909901602e-07 -1.1833218918e-05 7.07886122e-06 -2.6522960184e-07 
-6.6893075805e-06 -3.588299733e-06 1.0321485949e-06 -1.6291793754e-05 6.2861966382e-07 -2.336542233e-07 -3.2542473779e-05 -1.0298168174e-06 -1.9758622016e-07 
-3.7054176547e-06 2.6609693183e-07 -4.0090848849e-09 -5.783221782e-07 2.2785180523e-06 -5.5877828433e-07 -4.447281234e-05 9.0652136071e-06 2.7911256379e-08 
-4.2251800002e-06 -2.3643668429e-06 5.2791112686e-07 -6.2744696166e-06 -3.273454214e-06 1.7191184932e-06 -9.084585276e-06 -4.5206037174e-06 1.1089740026e-06 
-1.8528286431e-05 -5.3610173649e-06 -2.6511202966e-07 -2.1473916657e-05 -6.0577744386e-06 -3.0088122047e-07 -1.2120935992e-05 -5.1473757561e-06 3.074218372e-08 
-1.4983775985e-05 -5.0840243929e-06 -2.5134761994e-07 -1.6462386257e-05 -3.3553292216e-06 -2.5270672596e-07 -2.5061688209e-05 -5.9431578326e-06 -3.1387771629e-07 
-2.7670471865e-05 -7.4989794434e-06 -3.5724953584e-07 -3.0646284496e-05 -4.7515099151e-06 -2.7368878352e-07 -2.2625301421e-06 4.5437391479e-06 -4.4460231678e-07 
-1.1909315877e-06 3.4653968589e-06 -3.6069472637e-07 -6.5926632123e-07 2.3339551538e-06 -2.0274018314e-07 -6.7790858069e-06 7.0628711533e-06 -2.9917812172e-07 
-3.7960818921e-06 5.7736174694e-06 -5.1551547209e-07 -2.7201080918e-06 3.6702861662e-06 -2.0543694311e-07 -1.4383520842e-05 9.5967977594e-06 -2.7988584255e-07 
-1.0329570224e-05 9.0400890306e-06 -2.9366938007e-07 -8.1569423004e-06 5.3263929973e-06 -2.6413423066e-07 -2.4724210688e-05 9.5492870729e-06 -1.9687048374e-07 
-2.0093001824e-05 9.4025154892e-06 -2.4229931171e-07 -2.0143660741e-05 5.6708901001e-06 -2.3131774103e-07 -1.6963350872e-05 8.449779884e-06 -2.6180266767e-07 
-1.4310466836e-05 6.0372647737e-06 -2.5372654078e-07 -3.2931285453e-05 8.4094370747e-06 -1.1962111018e-07 -2.8406072436e-05 8.4955808912e-06 -1.6776978713e-07 
-2.7084252142e-05 5.4498489534e-06 -1.9415135722e-07 -4.1207144182e-05 9.5769529996e-06 -1.7900703968e-08 -3.7050090897e-05 9.7261563214e-06 -6.2138096118e-08 
-3.4994647905e-05 5.6435826392e-06 -1.0952627822e-07 -4.2296725941e-05 6.40274451e-06 3.9870220156e-09 -2.0917549041e-06 4.9126261242e-07 -8.7556367286e-09 
-3.1926840655e-06 -8.9271122664e-07 1.1594683577e-07 -6.8511354577e-06 -2.5394968339e-06 3.4838693254e-07 -4.4714483986e-06 -1.611636348e-06 1.5550584481e-07 
-5.1742876337e-06 -3.502487133e-07 3.2400981108e-09 -1.2166385497e-06 1.881196904e-06 -1.157729983e-07 -2.4923506935e-06 1.8131276908e-06 -1.1479421464e-07 
-4.3303459211e-06 1.8369359098e-06 -1.2637439875e-07 -2.3664410904e-05 -3.5394301454e-06 -2.7436922797e-07 -1.00427152e-05 -3.9088277184e-06 1.7473824909e-07 
-3.327709241e-05 -3.5465016401e-06 -2.3185365301e-07 -3.6285140456e-05 -6.3197381961e-07 -1.3632809456e-07 -2.9928636692e-05 -2.2217113376e-06 -2.3837437498e-07 
-3.935341005e-05 3.3388633656e-06 -4.8858075668e-08 -3.5414456989e-05 2.0903545617e-06 -1.2779164219e-07 -3.1636500156e-05 1.6706154104e-06 -1.7763594906e-07 
-9.2716549272e-06 4.3813309935e-07 -1.3642551747e-07 -5.9586840192e-06 1.3873476679e-06 -1.1747597075e-07 -7.872175949e-06 3.1726566108e-06 -2.1780673061e-07 
-1.1602751128e-05 4.6169987482e-06 -2.3771478374e-07 -1.205611902e-05 -1.7427526783e-07 -1.9934271821e-07 -9.9517284108e-06 -1.9996390229e-06 -1.3213964936e-07 
-1.3780833301e-05 1.5304814237e-06 -2.2284746438e-07 -1.4548704996e-05 -1.1873701848e-06 -2.269235321e-07 -1.415651331e-05 3.5345263565e-06 -2.3492386234e-07 
-1.6614694921e-05 2.7343766907e-06 -2.3523009152e-07 -2.9016493903e-05 4.6608449709e-07 -2.1011648178e-07 -2.4389030044e-05 -1.3219413803e-06 -2.5205730843e-07 
-2.6240591413e-05 2.5507638844e-06 -2.0903459936e-07 -2.2452767077e-05 3.5900060717e-06 -2.236927772e-07 -2.0838960624e-05 -1.3877396378e-06 -2.4835811085e-07 
-1.9226832871e-05 2.8583509614e-06 -2.3591248901e-07 -1.8917370462e-05 6.7750737125e-07 -2.3638962317e-07 -1.8182016591e-05 -1.4129011338e-06 -2.4924654802e-07 
-1.0445769908e-05 -2.0057705616e-06 1.1510929024e-07 -2.3542537331e-06 -6.0091147347e-07 -1.5774267771e-07 -1.3120349735e-06 -6.1608219824e-07 -9.929487905e-09 
-1.1926997337e-06 -3.5513950077e-07 -1.0064532325e-07 -1.0663509285e-06 -4.0187224094e-07 2.6421874451e-08 -4.4312591593e-05 -1.5944087098e-05 8.5431035079e-07 
-4.3359814731e-05 -1.1071920503e-05 2.5214416752e-07 -4.5648619517e-05 -1.3812151752e-05 1.5007029806e-06 -4.6727251357e-05 -4.0333332242e-07 1.0303348919e-07 
-4.4283779393e-05 -8.7563292867e-06 2.8028611915e-06 -3.8244366958e-05 -1.2793123458e-05 4.467777539e-07 -4.7460063802e-05 -1.4263127327e-05 1.0080472318e-06 
-4.5534028632e-05 -1.4480431534e-05 5.9434084282e-07 -4.5014723543e-05 -1.5440633042e-05 1.1683877056e-06 -4.3778807527e-05 -1.5108569409e-05 2.2048839184e-06 
-4.5731362887e-05 -6.5420476419e-06 1.6307711893e-07 -4.4759090192e-05 -1.1701159158e-05 2.127510891e-06 -4.0336797669e-05 -7.022436153e-06 7.0165949873e-08 
-4.6976727813e-05 -1.1822148051e-05 1.7462250393e-06 -4.3432281322e-05 -6.2522446571e-06 3.4251215244e-06 -4.8549679808e-05 4.8911998089e-06 9.5743225995e-08 
-5.0049216331e-05 -1.4031229122e-05 8.5673338211e-07 -4.8559689443e-05 -1.5158784677e-05 1.0478992845e-06 -4.8710368911e-05 -1.2848765152e-05 1.2473120249e-06 
-3.7010783451e-05 -1.3366296243e-05 1.6545785654e-06 -3.3062435405e-05 -1.2157884332e-05 2.2204522038e-07 -3.5911420176e-05 -9.4709570595e-06 -1.4957218834e-08 
-4.9095410794e-05 1.6997259157e-06 1.3165249275e-07 -4.8889431758e-05 -2.5204154459e-06 1.6224048255e-07 -4.6170808683e-05 2.7962738835e-06 6.645390333e-08 
-4.8198229973e-05 -5.5905863808e-06 1.9495056501e-07 -4.7786052531e-05 -9.3986307075e-06 2.8093524798e-07 -4.6212766526e-05 -3.5217600833e-06 1.2925833013e-07 
-4.7040703993e-05 -1.3239263626e-05 4.8338757036e-07 -4.617280939e-05 -1.5039995731e-05 7.1955594413e-07 -4.629731658e-05 -1.1529962288e-05 3.3784186979e-07 
-4.4704900457e-05 -1.3084562996e-05 4.1533714456e-07 -4.4410374738e-05 -8.8994681556e-06 2.0446561175e-07 -4.531030085e-05 -1.5528499153e-05 1.0275699533e-06 
-4.4583245672e-05 -1.4889915833e-05 1.4108097107e-06 -4.524405451e-05 -1.5615192139e-05 8.560350558e-07 -4.3967231238e-05 -1.308362867e-05 1.9363944677e-06 
-4.3675792067e-05 -1.1245198809e-05 2.3663358239e-06 -4.4652700355e-05 -1.4107662815e-05 1.6016922065e-06 -4.511757968e-05 -1.4807020473e-05 1.3384335237e-06 
-4.5302832668e-05 -1.2820573932e-05 1.8101716784e-06 -4.3313775942e-05 -9.7667962416e-06 2.7116371403e-06 -4.3180361275e-05 -7.757809751e-06 3.1446133098e-06 
-4.4527655571e-05 -1.0246497452e-05 2.4646746519e-06 -4.4528511207e-05 -7.2361401764e-06 3.0815019332e-06 -4.5666809691e-05 -1.4673131075e-05 1.9881844363e-06 
-4.1243771239e-05 -1.4051126363e-05 2.4311667894e-06 -4.0573344207e-05 -1.462577727e-05 1.7694877385e-06 -4.7068098457e-05 -1.5424728735e-05 1.148596763e-06 
-4.5820732779e-05 -8.6885727602e-06 2.6045097788e-06 -4.7217024735e-05 -1.0200667233e-05 2.0737853495e-06 -4.828331894e-05 -1.1471603812e-05 1.6135872919e-06 
-4.5936067042e-05 -1.0163394414e-05 2.2765388863e-06 -4.5850016874e-05 -1.1802633318e-05 1.9437815886e-06 -4.7293437908e-05 -1.3150090767e-05 1.3850771834e-06 
-3.7332263075e-05 -6.4410426796e-06 -3.4171850127e-08 -3.9997693978e-05 -3.6336593809e-06 1.6604257028e-08 -3.9231421875e-05 -9.8976665568e-06 1.4196521967e-07 
-4.3304111649e-05 -3.1832604947e-07 3.4503227116e-08 -4.2985312158e-05 -3.4185368603e-06 6.0043451052e-08 -4.3119009627e-05 -6.8328018942e-06 1.2374857477e-07 
-4.367699588e-05 -1.4369171155e-05 5.1932266716e-07 -4.1177814309e-05 -1.1912726647e-05 2.9136307374e-07 -4.2366354771e-05 -1.5024528582e-05 6.9049258848e-07 
-4.4678918678e-05 -1.5374494276e-05 7.2822556513e-07 -4.5240756766e-05 -1.531094111e-05 1.1189716243e-06 -4.566879656e-05 -1.5419744758e-05 8.8147239888e-07 
-4.643216533e-05 -1.4057435546e-05 1.2724697331e-06 -4.489221387e-05 -1.5771820547e-05 9.8520745423e-07 -4.4318889003e-05 -1.5945859306e-05 1.3272419098e-06 
-4.1929964126e-05 -9.1194361217e-06 1.4806442235e-07 -4.6257017162e-05 -1.2862717195e-05 1.6233744957e-06 -4.4094263179e-05 -1.6315384225e-05 3.0933244474e-07 
-4.3208919821e-05 -1.1341734877e-05 6.0654392974e-08 -4.5105428387e-05 -1.4143308639e-05 1.4188748329e-06 -4.6645868753e-05 -5.3848751597e-07 1.6353511738e-07 
-4.374067424e-05 -9.0723194225e-06 2.842252679e-06 -3.8282173975e-05 -1.3064130778e-05 -6.5001937234e-07 -4.7018831409e-05 -1.4733581712e-05 7.1987638674e-07 
-4.5223663483e-05 -1.4777357715e-05 6.3563968785e-07 -4.4536626139e-05 -1.5758827556e-05 1.2388857072e-06 -4.4104653471e-05 -1.5464593832e-05 -1.6914916944e-06 
-4.5641399312e-05 -6.7359357581e-06 2.3447933478e-07 -4.4221653701e-05 -1.2017313307e-05 2.1921114558e-06 -4.0303504949e-05 -7.1981600733e-06 -9.6254950667e-08 
-4.6435504986e-05 -1.2153380252e-05 1.6633482828e-06 -4.2878118955e-05 -6.5684201895e-06 3.4477841411e-06 -4.8484490588e-05 4.7890577823e-06 1.3519043523e-07 
-4.7866871013e-05 -1.5355939019e-05 -1.1772028104e-07 -4.9424661831e-05 -1.4438207625e-05 5.6872749264e-07 -4.8202736212e-05 -1.3200573463e-05 1.0406907214e-06 
-3.3109280837e-05 -1.2440454887e-05 -8.0733225274e-07 -3.6553413507e-05 -1.3826935653e-05 -1.9566108019e-06 -3.6060291106e-05 -9.6749530446e-06 -3.9279977677e-07 
-4.878803701e-05 -2.6723323388e-06 2.9462403661e-07 -4.9029052659e-05 1.5776109802e-06 1.9644614235e-07 -4.6105118607e-05 2.6812182148e-06 1.0792980485e-07 
-4.7597228181e-05 -9.600234854e-06 5.031634239e-07 -4.8101239825e-05 -5.7626049265e-06 3.5587433147e-07 -4.6122403682e-05 -3.6769419156e-06 1.9560635989e-07 
-4.5795265989e-05 -1.5326467887e-05 1.0522919703e-06 -4.6745662664e-05 -1.3507905497e-05 7.8351674455e-07 -4.446911092e-05 -1.3355850994e-05 3.1696141444e-07 
-4.605451758e-05 -1.1770165704e-05 4.8173674283e-07 -4.4267641222e-05 -9.1399711201e-06 1.5881030547e-07 -4.4079773353e-05 -1.5194743325e-05 1.6610115459e-06 
-4.4878573052e-05 -1.5836718218e-05 1.3568243202e-06 -4.4856371712e-05 -1.5940558247e-05 9.079716452e-07 -4.3123883311e-05 -1.1557269549e-05 2.4743963816e-06 
-4.3442542019e-05 -1.3394609743e-05 2.0956826328e-06 -4.4645072963e-05 -1.5117735574e-05 1.3051867828e-06 -4.4124115811e-05 -1.4415431926e-05 1.7405745604e-06 
-4.4770910835e-05 -1.3148809985e-05 1.8085776591e-06 -4.2636383147e-05 -8.0746807805e-06 3.1813072168e-06 -4.2769016716e-05 -1.0081826467e-05 2.7932774881e-06 
-4.3991033694e-05 -1.0559231012e-05 2.5151547468e-06 -4.3986576683e-05 -7.5532297163e-06 3.1073629373e-06 -4.108914644e-05 -1.4303704835e-05 -2.3822775602e-06 
-4.5852620863e-05 -1.5241851093e-05 -1.5626689559e-06 -3.9988038496e-05 -1.5095714901e-05 -1.5683494025e-06 -4.6178249071e-05 -1.5776598257e-05 -2.5332249487e-07 
-4.5263519382e-05 -9.0084638838e-06 2.6192822694e-06 -4.775436225e-05 -1.1804325805e-05 1.5208533459e-06 -4.6680516691e-05 -1.0527562919e-05 2.0314373476e-06 
-4.5400590688e-05 -1.0480460852e-05 2.2878655627e-06 -4.530141123e-05 -1.2124795949e-05 1.9283860609e-06 -4.6757368581e-05 -1.3489412964e-05 1.1904292414e-06 
-3.9981313613e-05 -3.7738135757e-06 -7.1606698198e-08 -3.7343427341e-05 -6.6102542996e-06 -1.9204756533e-07 -3.924566259e-05 -1.0183358436e-05 -2.97654214e-07 
-4.3273764656e-05 -4.4209924609e-07 4.7835637192e-08 -4.2904641643e-05 -3.5632599157e-06 5.1954245807e-08 -4.3031295237e-05 -7.0204821403e-06 6.4457876173e-08 
-4.1947844357e-05 -1.530511871e-05 -3.0369691532e-07 -4.104021417e-05 -1.2207969881e-05 -2.450865162e-07 -4.3425715943e-05 -1.4673009235e-05 1.1752851681e-07 
-4.4375861623e-05 -1.5715083927e-05 4.6976543479e-07 -4.5913829464e-05 -1.4435118612e-05 1.0513957899e-06 -4.5155316055e-05 -1.5852548012e-05 4.8042014948e-07 
-4.47836139e-05 -1.5653900013e-05 8.5506547879e-07 -4.4491646463e-05 -1.6141408675e-05 7.7704448997e-07 -4.4036202807e-05 -1.6252624094e-05 -5.5333762505e-07 
-4.1875400061e-05 -9.3610305027e-06 -4.721739635e-08 -4.572006377e-05 -1.3191323931e-05 1.5353973271e-06 -5.3552527657e-05 1.5788975643e-06 -5.8973473364e-08 
-6.1624134918e-05 -3.1370008545e-06 7.8126455334e-07 -5.488742387e-05 -1.3417382357e-05 5.3334065051e-07 -5.7440091576e-05 -1.2959017207e-05 6.6287289981e-07 
-5.9830564811e-05 -1.0546596489e-05 8.3087497751e-07 -9.2812259628e-06 -3.9526554479e-06 2.0529548803e-08 -1.4122057813e-05 -7.124844502e-06 -4.2635052034e-07 
-7.4970622343e-06 -2.7468660523e-06 -1.0976554034e-06 -7.4793448767e-06 -2.9622745744e-06 1.1244910053e-06 -1.0609043919e-05 -5.2817180326e-06 -1.1020809243e-06 
-1.0512778366e-05 -5.0453705386e-06 6.4807371834e-07 -1.5476013314e-05 -7.0373785277e-06 -4.5526293702e-07 -1.5522259767e-05 -7.0760059502e-06 -3.390375396e-07 
-1.2754984397e-05 -6.9821545079e-06 -7.6197228658e-07 -1.3027027531e-05 -6.8278956418e-06 -1.9202146594e-07 -1.1805418976e-05 -6.3911681216e-06 -4.7856161986e-07 
-1.98689271e-05 -7.689484887e-06 -3.5604267297e-07 -2.538368651e-05 -1.0034052645e-05 -4.1469216982e-07 -1.8432799631e-05 -7.3681969979e-06 -3.2396613773e-07 
-1.8380273631e-05 -7.3404658244e-06 -4.0008326988e-07 -2.1312502758e-05 -8.1010984805e-06 -3.725898172e-07 -2.659861998e-05 -1.084315677e-05 -3.4980512021e-07 
-2.6718978657e-05 -1.0882828834e-05 -5.4547213871e-07 -2.4100056823e-05 -9.2684188125e-06 -3.934315523e-07 -2.1364407381e-05 -8.1134749831e-06 -3.480043554e-07 
-2.4159562481e-05 -9.2870946608e-06 -3.7955753265e-07 -2.2766337315e-05 -8.6422393309e-06 -3.7052967618e-07 -5.0837482959e-05 -1.4907792846e-05 3.5720839628e-07 
-4.8484724447e-05 -1.4484940765e-05 4.1730919567e-08 -3.1204057633e-05 -1.2712783662e-05 -5.6406237074e-07 -3.6217910584e-05 -1.2554478877e-05 -1.4938042662e-07 
-4.3131073793e-05 -1.3060399484e-05 1.2204992797e-07 -9.4828289001e-06 -4.9977754093e-06 -2.0546201099e-07 -1.077137495e-05 -5.9132609401e-06 -9.1417829169e-07 
-1.8492352412e-05 -5.3559932314e-06 -3.2678506379e-07 -1.7066881567e-05 -5.4030159264e-06 -3.0247128711e-07 -1.346103812e-05 -4.98904891e-06 -4.2491441446e-07 
-8.2139129366e-06 -4.0620675165e-06 -8.6532486124e-07 -1.3539113619e-05 -5.0896280319e-06 -2.7844369306e-07 -1.7005786674e-05 -5.3569385846e-06 -3.8190940692e-07 
-1.9996491393e-05 -5.5906745057e-06 -3.0187502443e-07 -1.8152814206e-05 -1.4250250996e-06 -2.7695740954e-07 -1.4547194884e-05 -1.2180874153e-06 -2.9445848919e-07 
-1.6272628229e-05 6.2166225861e-07 -2.6285932289e-07 -7.9144305538e-06 -3.903744441e-06 7.9171019278e-07 -6.5846192385e-06 -3.0379920455e-06 7.1489334904e-08 
-7.0834362521e-06 -3.7945760859e-06 -1.7270725468e-07 -2.007344002e-05 -3.5964872378e-06 -2.939985968e-07 -1.2900861986e-05 -3.0072308169e-06 -3.3178524807e-07 
-1.6427957881e-05 -3.3830334386e-06 -3.1071748001e-07 -1.018801185e-05 -4.0695051151e-06 -4.4118300186e-07 -1.9951301815e-05 -5.5671020994e-06 -3.4394255818e-07 
-2.5001366082e-05 -5.9363924331e-06 -3.0064530267e-07 -2.3513781672e-05 -5.4906296534e-06 -3.0634799231e-07 -2.3623134306e-05 -3.5320658453e-06 -2.7368478767e-07 
-1.3780360017e-05 1.5080673839e-06 -2.5667570693e-07 -2.6318195143e-05 -6.5988358116e-06 -3.0720943691e-07 -2.3564046228e-05 -5.5075578519e-06 -3.0143605643e-07 
-1.9233348655e-05 8.5905272575e-06 -2.2316984114e-07 -1.9222327201e-05 8.5918238711e-06 -1.7918730015e-07 -1.6964838758e-05 4.8713646804e-06 -2.2317170701e-07 
-1.6967153925e-05 8.4558241389e-06 -2.033350126e-07 -2.2391221205e-05 9.5209861356e-06 -1.7418059144e-07 -2.0136503574e-05 5.6812387591e-06 -2.1099700118e-07 
-3.2920219398e-05 8.4458711137e-06 -1.2941958231e-07 -3.0678914576e-05 8.5079170891e-06 -1.5357038372e-07 -4.792604388e-05 -7.6723931358e-06 3.7084666224e-07 
-4.7990842309e-05 -7.5866370041e-06 2.7371751351e-07 -4.5678914438e-05 -6.617934178e-06 1.9554832038e-07 -4.4322965462e-05 -8.9869699648e-06 1.7924629527e-07 
-4.641445024e-05 -9.8754002675e-06 3.0456933976e-07 -5.1037113159e-05 -4.1001062505e-06 2.8913074684e-06 -5.2323987201e-05 -4.9152762524e-06 2.5520888443e-06 
-5.1602846631e-05 -6.2448673959e-06 2.32897094e-06 -5.0759443534e-05 -4.275707232e-06 2.8897384927e-06 -5.0327007935e-05 -5.523190843e-06 2.6693689344e-06 
-2.851763456e-07 -2.8966133765e-07 2.9640334245e-08 -7.7709428081e-08 -1.1984119288e-07 1.5340264769e-08 -7.4505677058e-08 -1.1632075838e-07 -8.5286703904e-09 
-2.4457286854e-07 -2.4950852131e-07 1.2510318706e-08 -5.3301725683e-07 -5.0039730749e-07 5.9171362887e-09 -5.6834594694e-07 -1.7501597359e-07 1.9620998162e-08 
-4.0016589969e-07 -1.0387259289e-07 -9.070110085e-09 -2.6842100615e-07 -4.858520896e-08 1.3949772568e-08 -4.9561595915e-07 -1.0139895904e-07 2.7844468728e-08 
-2.7556481648e-07 -3.493710347e-08 -6.1714397698e-09 -2.5645182468e-05 -3.4089924399e-06 7.0277790072e-07 -3.1563129143e-05 -5.9324744385e-06 7.7059184618e-07 
-2.2984176729e-05 -8.6777654065e-06 5.8534345601e-07 -1.7243940007e-05 -2.597277447e-06 4.5733800097e-07 -2.2974695164e-05 -8.9090924994e-06 3.8803251843e-07 
-4.3658743305e-05 -1.2263855942e-05 2.1814775648e-06 -4.4388351582e-05 -1.3361596346e-05 1.8445595445e-06 -4.3382506739e-05 -1.241676011e-05 2.2496753019e-06 
-4.5047161991e-05 -1.2965291309e-05 1.8131429187e-06 -4.4488254041e-05 -1.1847303522e-05 2.15997948e-06 -3.0680534929e-05 8.4810749788e-06 -1.4728717558e-07 
-2.7033691434e-05 9.5767190612e-06 -1.7352100593e-07 -2.707199453e-05 5.4720079156e-06 -1.8245330702e-07 -2.3338981127e-05 6.4845977681e-06 -1.9778866001e-07 
-2.7029136512e-05 9.5951060912e-06 -1.7000123069e-07 -3.6270030158e-05 -5.7676264895e-07 -1.0829679545e-07 -3.2516911294e-05 -9.9130506297e-07 -1.6620374219e-07 
-3.1618557984e-05 1.7038506324e-06 -1.6083437063e-07 -3.7719957261e-06 2.3043441014e-07 -1.1050172335e-07 -4.3871386585e-06 1.8129869945e-06 -1.2468347857e-07 
-2.5034884202e-06 1.7981424924e-06 -5.5095327706e-08 -2.1420186075e-06 4.7498343992e-07 -4.2244959775e-08 -3.0767476462e-05 4.3965504697e-06 -1.5906427754e-07 
-5.204963512e-05 -5.0991875468e-06 2.5540132941e-06 -5.3240048839e-05 -5.0278014791e-06 2.4109936475e-06 -4.6314602785e-05 -9.9886119611e-06 3.6308355836e-07 
-4.618889041e-05 -1.1594002899e-05 4.1129013684e-07 -3.8996756586e-07 -1.2158181763e-07 2.5937771574e-09 -3.382579882e-07 -2.9663964035e-07 -1.8528372953e-09 
-3.8986213045e-05 -6.3198333418e-06 8.5641811915e-07 -4.4382107777e-05 -1.4230542528e-05 1.6703185818e-06 -5.2913990828e-05 -6.8919504995e-06 1.9839505425e-06 
-3.895959352e-07 -1.1464968644e-07 2.0310828646e-08 -6.4151496159e-07 -2.5983115433e-07 2.9975351525e-08 -4.3259924892e-05 -1.1146624877e-05 1.5886432645e-07 
-3.5935790848e-05 -6.383041218e-06 8.6950404749e-07 -3.159325584e-05 -5.7966124766e-06 6.3206852373e-07 -2.7865451201e-07 -2.902166748e-07 -2.4816276822e-08 
-8.5387838765e-07 -7.1498542523e-07 -5.7215161035e-09 -4.5387428145e-05 -1.394824104e-05 1.4620907677e-06 -4.4124024373e-05 -1.3522601888e-05 1.8949542696e-06 
-5.1974377095e-06 6.5329921087e-06 -3.3080767081e-07 -3.9139362928e-06 5.6616870716e-06 -2.3069169836e-08 -4.6958735654e-05 -1.0357244056e-05 2.0526853803e-06 
-4.5576914218e-05 -1.1950806494e-05 1.9373548768e-06 -4.6723971879e-05 -1.1978078375e-05 1.7085458523e-06 -1.4289220931e-05 -2.7072628288e-06 4.4992385344e-07 
-1.6120612558e-05 -1.98251187e-06 4.7697708494e-07 -4.6344630008e-06 -5.1762542695e-07 2.9587590932e-07 -6.3949755837e-07 -1.8026745379e-07 3.738959233e-08 
-8.7137965034e-07 -2.2814768243e-07 7.0477450012e-08 -7.6440248332e-07 -3.1586581275e-07 7.0295589917e-08 -4.8697105489e-05 -7.0616991727e-06 2.536073131e-06 
-4.8711314986e-05 -8.563236022e-06 2.1887141782e-06 -5.0451394395e-05 -8.3957678493e-06 1.9727003904e-06 -5.0429030792e-05 -6.9581545705e-06 2.3163090844e-06 
-5.2185412509e-06 6.4384775292e-06 7.6461645278e-08 -6.8852298581e-06 7.0655335607e-06 -1.7666505943e-07 -1.2054032763e-05 -2.0600732199e-07 -2.8626581634e-07 
-4.4264200886e-06 -2.5159939841e-06 -3.8365828464e-08 -2.576321952e-06 -1.7735916279e-06 8.3450807781e-08 -7.2703289194e-06 -1.7293249471e-06 2.6749556234e-07 
-5.6582878594e-06 -1.6620795986e-07 3.0914686457e-07 -2.1609609627e-06 1.8064415472e-07 1.6912115322e-07 -4.7276605884e-05 -6.9328410286e-06 2.7654027117e-06 
-4.7366138735e-05 -5.1865522989e-06 3.1342102877e-06 -4.8809432256e-05 -5.3572099062e-06 2.9026600566e-06 -4.5540803545e-05 -8.8426689727e-06 2.6129106588e-06 
-4.4006614191e-05 -8.9096742699e-06 2.8226097586e-06 -4.4253351471e-05 -1.0394320197e-05 2.4905598553e-06 -4.5674388405e-05 -1.0314320348e-05 2.2808412275e-06 
-3.9877919424e-07 1.1846172782e-07 -9.1531907415e-10 -8.0446158624e-07 3.0134520346e-07 1.3887209711e-08 -4.7576283895e-07 3.2066397249e-08 1.6474686866e-08 
-2.9892997644e-05 -2.1867620829e-06 -2.0694686324e-07 -2.239969576e-05 9.5086442583e-06 -2.0715877407e-07 -2.4720110933e-05 9.5707691018e-06 -1.8232439885e-07 
-1.2317475879e-05 9.3333778778e-06 -2.3703916124e-07 -1.1837127126e-05 7.0801452539e-06 -1.9900904755e-07 -1.2305260383e-05 9.3311444515e-06 -1.4494482795e-07 
-1.4392148058e-05 9.5965745679e-06 -1.9600592337e-07 -1.0733364625e-06 -1.0289824629e-06 3.9826062074e-08 -1.0264097444e-06 1.300052076e-07 9.9399294547e-08 
-4.5934179084e-05 -5.5416745972e-06 3.2523404754e-06 -4.4254125878e-05 -7.3929363923e-06 3.0945791579e-06 -3.780058359e-07 2.2335457512e-09 2.9973777951e-08 
-3.9972642961e-05 -3.6909707386e-06 -3.1039261675e-08 -4.3054479962e-05 -6.9024681174e-06 8.7766299584e-08 -4.0300395341e-05 -7.0891966581e-06 -1.3251721767e-08 
-4.8306327012e-05 -9.9993722957e-06 1.9177288388e-06 -4.8039662275e-05 -1.163095232e-05 1.5719147291e-06 -1.2243060685e-06 -5.7649499335e-07 1.4392423604e-07 
-2.2461322372e-06 -7.0453322213e-07 2.4132945658e-07 -9.9180737408e-06 -2.9222617309e-06 3.9823666121e-07 -5.0016194408e-05 -9.8277046023e-06 1.7078431376e-06 
-4.3000524862e-05 -5.4982556512e-06 3.6464231633e-06 -4.9933866439e-07 -5.3145380012e-07 -1.7290630256e-07 -5.300906639e-07 -4.8166199691e-07 1.3840860683e-07 
-4.327729615e-05 -5.338894417e-06 3.6408996512e-06 -4.650840505e-05 9.0564358038e-06 4.9321746692e-08 -1.6309739034e-07 -1.1495122885e-07 6.4977132653e-08 
-4.4219017161e-05 -4.3510775622e-06 3.7287863864e-06 -4.3943103836e-05 -4.5104071197e-06 3.7352261198e-06 -1.5651265911e-07 -1.4359488023e-07 -5.977316238e-08 
-5.0326197548e-08 4.50445672e-07 1.3271566879e-07 -4.652834258e-05 9.1020476883e-06 3.7673629194e-08 -2.2230732214e-08 4.314754771e-07 -1.7642969558e-07 
-5.4985866066e-07 1.2573466863e-06 2.8133690546e-07 -5.7576268344e-07 1.3310978977e-06 -3.1467387588e-07 -4.8534428893e-05 6.9388992006e-06 9.9577665846e-08 
-4.8561270566e-05 6.9860476483e-06 8.8774830135e-08 -2.9851548331e-05 -7.8875129678e-06 -3.2784174714e-07 -2.9748557207e-05 -7.8747052523e-06 -2.7248089627e-07 
-3.4004720012e-05 -5.9820647174e-06 -1.9524018653e-07 -3.1004643431e-05 -8.7408836229e-06 -3.1249162849e-07 -4.3287355659e-05 -3.7012917136e-07 4.0218643516e-08 
-4.2934759886e-05 -3.4746187689e-06 5.296424263e-08 -4.6173419666e-05 -3.5841791607e-06 1.6209268396e-07 -4.6694414786e-05 -4.6103111672e-07 1.3152793846e-07 
-1.0156993315e-06 -4.825843243e-07 -1.2762620568e-08 -1.3430098809e-06 -6.3542806448e-07 -2.3174677629e-08 -1.0724585467e-06 -4.6850365601e-07 -7.4158448046e-09 
-5.6134460726e-05 -9.5877885963e-06 9.6685089777e-07 -5.5916814242e-05 -8.0644983803e-06 1.2233637099e-06 -5.8294520912e-05 -9.3410152631e-06 6.9913389334e-07 
-5.7463909432e-05 -7.8994289598e-06 1.0058666503e-06 -5.7155284551e-05 -8.803804664e-06 8.9333132569e-07 -4.4277938842e-05 -1.5777813024e-05 2.986154476e-07 
-4.3941245162e-05 -1.4974334877e-05 2.844878194e-07 -4.0170179819e-05 -1.4596167757e-05 8.3133956665e-08 -8.967757473e-07 -3.8616233518e-07 -3.5351897115e-08 
-4.6964673128e-05 -1.5484846182e-05 3.1661055949e-07 -4.2667260236e-05 -3.9697854315e-06 4.0088386949e-06 -1.5329522228e-07 -8.8758105378e-08 -7.8051273038e-09 
-4.95593253e-05 1.0070499903e-05 8.4457236259e-08 -1.7388461009e-07 1.511458815e-07 -9.0215385163e-09 -1.1225472558e-06 -3.190779328e-07 1.3229556383e-09 
-1.2250102765e-06 -8.6852830963e-07 1.4453936529e-08 -6.4347922975e-07 -5.2243766995e-07 1.2392701479e-08 -5.0126351357e-06 3.6076964766e-06 -1.2528341004e-07 
-4.6141046331e-05 2.7426056084e-06 8.4922790527e-08 -3.324014944e-05 -3.4984735939e-06 -1.7913078224e-07 -3.6977309378e-05 -3.1067633943e-06 -1.0101507081e-07 
-3.7294752001e-05 -6.5223706661e-06 -1.0698870693e-07 -3.7071395546e-07 4.5852592383e-07 7.9524947811e-09 -7.4456617952e-08 -1.4118200262e-08 1.1471123378e-08 
4.2258468861e-08 2.7847368549e-07 3.6285176977e-09 -3.9354109921e-05 3.3875598235e-06 -5.0223969775e-08 -3.8999413198e-05 6.9677967533e-06 -6.171013922e-08 
-3.4988868544e-05 5.6786880125e-06 -1.1311139938e-07 -1.2584652742e-06 1.8519254176e-06 -2.2472110601e-08 -2.7854607413e-06 3.6323244186e-06 -4.7384488722e-08 
-1.6170412313e-06 3.2193691071e-06 -2.7344974159e-08 -2.7196404695e-05 -3.41774976e-06 -2.4139474391e-07 6.7256901652e-08 4.9656038639e-08 -1.3122879804e-09 
1.0466240244e-07 1.3984511483e-07 -3.1988823622e-08 1.0529063483e-07 1.3884283749e-07 3.0228047908e-08 -3.3277396561e-06 -3.9774175825e-06 -4.9728778794e-07 
-3.3625214457e-06 -4.1320490311e-06 6.9472673716e-07 -5.9650815722e-06 -6.8063177963e-06 2.3943843918e-07 -4.3093146827e-05 -8.8399890543e-06 2.9446129882e-06 
-4.2819813382e-05 -8.9980309871e-06 2.9705503897e-06 -4.3029087533e-05 -9.9185119519e-06 2.7522473531e-06 -4.8958859323e-05 -5.1522810082e-07 2.1385441169e-07 
-4.9000116379e-05 -4.4881474955e-07 1.6905853958e-07 -4.8856750248e-05 -2.583105726e-06 2.2737156466e-07 -4.7539174164e-05 -3.9615805737e-06 3.3693346008e-06 
-4.7261857518e-05 -4.1255420025e-06 3.3819151477e-06 -4.8375996589e-05 -4.0093573711e-06 3.2517976981e-06 -1.716221141e-07 2.707179588e-08 -4.9004185376e-10 
-1.7305695001e-07 4.5361476895e-08 2.667670738e-09 -2.0962136232e-07 2.5848049189e-08 6.6972056916e-10 -3.0591310666e-05 -4.7108277446e-06 -2.3161645218e-07 
-2.6398348997e-05 -6.6151053202e-06 -3.0422407496e-07 -1.6603507726e-05 2.7351400879e-06 -2.4185054605e-07 2.4410183219e-08 7.2470515755e-07 -1.9646991979e-08 
-5.1565252888e-07 1.2489455912e-06 -1.9601963026e-08 -1.8941537034e-06 -4.3311573958e-07 -2.2332531816e-08 -1.8969333247e-06 -1.2354747843e-06 -6.7297972395e-09 
-4.1212942715e-05 9.6114004354e-06 -3.882952643e-08 -3.9156247069e-05 9.6958364751e-06 -8.0037529128e-08 -1.6532620213e-06 3.974378373e-06 1.8992734387e-07 
-1.2545098187e-06 3.4875544074e-06 8.2674079406e-09 -3.2838740224e-06 -9.1175806902e-07 -7.9237634594e-08 -6.0394253766e-06 1.333885044e-06 -1.7708631441e-07 
-5.2688153536e-06 -3.9807267822e-07 -1.6972758357e-07 -3.9145486744e-05 9.6609680085e-06 -5.2623562473e-08 -1.6772962308e-06 3.9856930539e-06 -1.7622576706e-07 
-4.5377169207e-05 -1.4561873224e-05 6.0818228989e-07 -4.4538353681e-05 -1.5472003816e-05 5.9749569735e-07 -4.4566038335e-05 -1.3158893698e-05 3.6720007343e-07 
-7.0952678444e-07 -4.0470273052e-07 -1.9745435788e-08 -4.8559378866e-07 -3.1577184516e-07 -1.2906651215e-08 -6.6354282881e-07 -4.9400513403e-07 -1.2915624411e-08 
-5.4341316983e-05 -6.1711348103e-06 2.011427735e-06 -5.6370113132e-05 -6.294235295e-06 1.6409437106e-06 -5.550164315e-05 -5.6723596771e-06 2.0181028088e-06 
-4.6134349537e-05 -5.5754988868e-06 9.3995215869e-07 -5.573441971e-05 -6.3011788112e-06 1.3670723363e-06 -5.2323328124e-05 -5.5246644298e-06 1.1395095879e-06 
-6.5090910551e-07 -2.9330877302e-07 -7.0892023371e-09 -4.6120805685e-07 -1.8068675736e-07 -1.1948440315e-09 -5.6335992948e-07 -2.1240340002e-07 1.1568736235e-08 
-4.4891221499e-05 -1.4907798294e-05 1.3176273385e-06 -4.4779715087e-05 -1.5529562047e-05 1.2032870566e-06 -4.4714014147e-05 -1.5868102104e-05 8.8097644584e-07 
-4.5070080476e-05 -1.5425801617e-05 9.7210259216e-07 -3.7049507617e-05 9.7522491478e-06 -8.93034845e-08 -4.9072022537e-05 1.6421308807e-06 1.6448767366e-07 
-4.6443451597e-05 -4.0757039403e-06 3.4967741816e-06 -1.2741503573e-07 1.9276401139e-08 -1.7960991226e-09 1.1028662936e-07 2.4710116073e-07 1.6054873909e-09 
-1.8892419188e-06 -2.5205581547e-06 -2.1816215051e-08 -4.2904176486e-05 -7.9144260433e-06 3.163212726e-06 -4.5873506169e-05 -7.3221457623e-06 2.8842171947e-06 
-4.4531562215e-05 -5.8838982313e-06 3.3672295755e-06 -3.4966904724e-07 -5.06740569e-07 2.4794037003e-08 -4.7127472244e-05 -8.7015937414e-06 2.3994889955e-06 
-7.1511294581e-07 -1.4374940071e-08 3.110037266e-08 -1.5198161922e-06 4.451650189e-07 1.3776611281e-07 -2.8990921531e-05 4.966182146e-07 -1.9270218885e-07 
-2.1588032689e-07 -1.50123049e-07 -4.1569363974e-09 -4.6892971087e-05 -1.3304484373e-05 6.2869767942e-07 -5.4529122708e-05 -4.251287258e-06 2.4289342801e-06 
-4.4316853159e-05 -1.4995718097e-05 1.5395306251e-06 -2.4163499329e-07 -7.9322736493e-08 -2.3902083877e-09 -4.6722888226e-05 -9.7623847796e-06 1.1210513495e-06 
-2.5083641302e-07 -1.0215183296e-07 -7.5241415525e-10 -4.873684459e-07 -2.440857888e-07 -1.0804609758e-08 -2.4851821737e-07 -1.3071197575e-07 -1.6870481061e-09 
-4.5089569551e-05 -1.5615910679e-05 1.1856200307e-06 -4.5983845958e-05 -1.5104687177e-05 8.8821465144e-07 -4.5051968493e-05 -1.5699905393e-05 8.8028690418e-07 
-5.625725986e-05 -5.6578518058e-06 1.6476249598e-06 -5.4469300412e-05 -8.0879717363e-06 1.5683281667e-06 -5.6012541273e-05 -5.3399764654e-06 2.0302485215e-06 
-3.5402024164e-05 2.1353191909e-06 -1.1421219926e-07 -3.9771712152e-05 -1.8764673012e-07 -3.9293080293e-08 -7.8993506701e-06 3.1524374023e-06 -1.9525567617e-07 
-1.1408734957e-05 2.2797882856e-06 -2.4083356531e-07 -9.3201025558e-06 3.7399569015e-07 -2.4613648246e-07 -4.9553783908e-05 -1.129167009e-05 1.4375022937e-06 
-5.5290648004e-06 -1.8634001857e-06 3.2978660718e-07 -1.078317466e-06 6.1552588056e-07 -4.5830345825e-09 -2.4355177515e-05 -1.3093336155e-06 -2.4121621189e-07 
-2.6223513715e-05 2.5629695812e-06 -2.0124601368e-07 -7.2003295883e-06 -2.6909258082e-06 -3.3547927523e-07 -4.620493109e-05 -1.4211414023e-05 1.1866286824e-06 
-4.5552522233e-05 -1.5546175514e-05 6.5853792178e-07 -4.7374455017e-05 -1.4432774988e-05 8.6582943915e-07 -7.2632203444e-07 -3.3576553075e-07 6.0730655611e-08 
-8.6657145885e-07 -3.4678902072e-07 8.8340291655e-10 -8.5242134847e-07 -3.1706236582e-07 7.9342539458e-09 -5.5503255277e-05 -7.8894453532e-06 1.0349500394e-06 
-4.0807974163e-05 -7.3455893637e-06 9.190875697e-07 -4.6369916988e-05 -9.4554911871e-06 9.2135719893e-07 -5.3420731737e-05 -8.1424334272e-06 1.5991173729e-06 
-5.3919215762e-05 -9.6025491799e-06 1.2492215589e-06 -1.1907568139e-06 -6.5012267647e-07 -2.5058687065e-08 -1.3252782602e-06 -9.1510833161e-07 -1.7068784056e-08 
-1.7463765739e-06 -9.2849074357e-07 -2.6053948537e-08 -4.2180198384e-05 -1.4950970332e-05 1.7736681938e-07 -3.8063044461e-05 -1.2807726544e-05 -2.0215613745e-07 
-4.1080369545e-05 -1.1954183982e-05 -3.7525452156e-09 -4.3507908302e-05 -1.4451873468e-05 3.3300313397e-07 -4.4796644269e-05 -1.535771781e-05 1.2802611929e-06 
-4.4563813403e-05 -1.5508845493e-05 1.430935168e-06 -5.2145007746e-05 -9.1009003023e-06 1.5908312302e-06 -5.2061044018e-05 -9.4246069228e-06 9.5548559767e-07 
-2.4787502759e-07 -8.8485323304e-08 -1.8362195184e-08 -2.4696245386e-07 -8.8488507322e-08 1.5817355977e-08 -4.2608751323e-05 2.8477247559e-06 9.6022741039e-09 
-4.5542754222e-05 5.9571701828e-06 4.7112074333e-08 -2.3684802338e-07 -1.4030504605e-07 1.9802074237e-08 -2.3679235523e-07 -1.4186738504e-07 -2.7579518595e-08 
-5.5415193421e-05 -4.6087485146e-06 2.0621477899e-06 -5.5620602434e-05 -4.3256684626e-06 2.44242825e-06 -4.636430927e-05 -1.4451792689e-05 8.3400466553e-07 
-4.6534051739e-05 -1.4312318331e-05 6.6649929405e-07 -1.4314833716e-05 6.0343991628e-06 -2.1333834105e-07 -2.3656466788e-06 4.5351303781e-06 9.242093209e-09 
-1.0338303447e-05 9.0389646935e-06 -1.7809639293e-07 -8.1834215309e-06 5.3274281384e-06 -1.7757927999e-07 -5.2099131638e-05 -8.9787289547e-06 1.611252164e-06 
-2.6767462727e-05 -5.784778344e-06 7.5926215839e-07 -2.1939367707e-05 -5.8515681606e-06 5.9014345753e-07 -4.852224795e-05 -1.3015766475e-05 1.1515889731e-06 
-4.7069814748e-05 -1.3305027342e-05 1.2922946203e-06 -7.0480040353e-07 -4.6264486467e-07 6.8443303741e-08 -2.1874205663e-06 -1.4972569721e-06 -4.1149638442e-09 
-1.5985259743e-06 -1.1740969282e-06 -2.2300947265e-09 -3.9202329262e-05 -9.9982230018e-06 -8.713298635e-08 -3.5906203827e-05 -9.5350141773e-06 -1.9322196129e-07 
-5.8353368215e-06 1.0837939584e-06 4.4735233151e-08 -1.305174062e-05 -1.8514450117e-06 2.3841297536e-07 -3.7584347336e-06 -2.0915615404e-06 -9.989760413e-08 
-2.1165285594e-06 -1.0760223644e-06 -1.0482452951e-07 -3.2776907385e-05 -1.2281489296e-05 -4.2398126681e-07 -3.899072156e-05 -4.2351908243e-06 8.4722608591e-07 
-1.8900671708e-05 6.8356958233e-07 -2.5326971791e-07 -2.1554838242e-05 7.5579016676e-07 -2.3996775943e-07 -5.2302141254e-05 -7.3941185466e-06 1.0747306665e-06 
-7.1027878571e-07 -2.9027440532e-07 4.7085270663e-09 -5.7079608276e-05 -6.9580720974e-06 1.329130727e-06 -5.5358895182e-05 -6.9444536535e-06 1.6162161095e-06 
-8.4566089233e-07 -4.1783859012e-07 -1.9065672589e-08 -9.2900991792e-07 -5.890780362e-07 -2.2918672797e-08 -4.4225488889e-05 -1.5992460746e-05 5.7504522479e-07 
-5.0067454123e-07 -9.9312162236e-08 1.0733316229e-08 -5.7754276765e-08 1.4787347571e-06 -2.355055807e-08 -1.0032736605e-05 -2.0866187504e-06 -2.8114016638e-07 
-7.2448006404e-06 -1.2436985074e-06 -2.4826831008e-07 -1.161117824e-05 4.6053229281e-06 -2.1178336208e-07 -2.2441780154e-05 3.6010308981e-06 -2.1535662911e-07 
-4.1070594155e-05 -1.3904353894e-05 2.0865190968e-07 -2.8696922921e-06 -1.6246731174e-06 -4.5342042993e-08 -4.2300623966e-05 6.4474080237e-06 -1.0141589651e-08 
-5.0871483318e-05 -1.2551135243e-05 1.0093994186e-06 -1.3375532134e-06 -7.203356681e-07 1.3919808447e-07 -5.1676162557e-05 -1.049530992e-05 1.3522390827e-06 
-4.9866207004e-05 -1.420901036e-05 7.044881193e-07 -5.3260725139e-05 -1.1999754186e-05 9.4548557157e-07 -7.6368396816e-07 2.3436840573e-06 -3.2427928986e-08 
-7.0034595639e-07 -3.0197131539e-07 -1.5163357397e-07 -5.5282652325e-05 -1.0977518431e-05 9.028306108e-07 -1.4271082206e-06 -6.7521119859e-07 -7.258196059e-09 
-3.6518965812e-05 -1.347457399e-05 -2.0648710987e-07 -2.0813847406e-05 -1.3875559394e-06 -2.6567858958e-07 -4.5022699563e-05 -4.4156238935e-06 3.6126082301e-06 
-8.605796612e-07 -1.0684342709e-06 -8.7212185026e-08 -4.3151408131e-05 -6.4114933983e-06 3.4348811079e-06 -4.5951517176e-05 -1.4679270245e-05 9.1305905934e-08 
-1.4152758957e-05 3.532567516e-06 -2.3337388616e-07 -5.8034989123e-05 -1.0721626009e-05 6.3596308382e-07 -1.2144603647e-06 -5.3429309227e-07 -2.7287674554e-09 
-9.8882833184e-07 -3.9011981906e-07 1.3834862884e-08 -5.5315496385e-05 -8.0518569156e-06 8.302301087e-07 -4.9868757781e-05 -4.2006225805e-06 3.0173884562e-06 
-4.4490134531e-05 9.1080742084e-06 1.0551889701e-08 -6.6416235995e-07 2.3911712223e-06 -1.0655143271e-07 -6.0175935458e-05 -8.9898432092e-06 1.6160547828e-07 
-1.1121200975e-07 -1.2231056906e-07 1.1169193123e-08 -4.8522581329e-05 4.8401108589e-06 1.1448075939e-07 5.5729905067e-08 5.1493662595e-07 3.0536403468e-09 
-4.5999896016e-05 -1.300275064e-05 1.5873635168e-06 -6.9731609794e-07 -2.796235389e-07 4.6763989364e-08 -2.4204094374e-05 -4.5209610724e-06 7.3641366477e-07 
-5.1695037207e-05 -7.6125651162e-06 1.9809422623e-06 -1.0241226394e-06 -8.30415245e-07 1.7155853665e-09 -4.1879375392e-05 -9.2120943238e-06 5.2178416988e-08 
-4.8362343888e-05 -1.5156216074e-05 4.2953923751e-07 -1.9215742576e-05 2.8677375362e-06 -2.3279200998e-07 -4.8162254713e-05 -5.6534540958e-06 2.739604219e-07 
-1.9822364786e-08 -6.4018794694e-08 3.568790642e-09 -2.7579433958e-07 -1.7156708484e-08 3.2514514531e-09 -1.5218601278e-05 -7.874091459e-06 3.9880601043e-07 
-4.3387170333e-05 -1.1389799805e-05 2.4206338865e-06 -4.6267013303e-06 -1.6641304335e-06 -1.2623922196e-07 
Critical%20Strain%20Ratio 1 1484 double
0.0086583803022 0.0076026852455 0.020773250267 0.022719379353 0 0 0 0 0.29038184721 
0.015744324591 0.54692933749 0.024052993042 -0.001886432561 -0.0011827730995 -6.5822652864e-05 0.017880456893 -0.00019936091948 0.0043950830426 
-0.00061124806328 0.028278987656 -0.0016939901306 0 0 0 0 0 -2.3064859637e-05 
-0.0019489947683 0 0 0 0 0 0 -0.00011532429818 -0.00095331287722 
0 0 0 0 0 0 -0.0017698581206 0 0 
0 0 0 0 0 0 0 0 -0.0012476951877 
0.055774485108 -0.014195803768 0.014004228432 0.031636582719 0 0 0 0.034593560291 0.032276882214 
-0.0019150195407 0.034055835298 0.034699240531 0 0 -0.00054588480505 0.055154282334 -0.011934466009 0.016552428159 
0.034589138931 0 0 0 0.028969140822 0.03678626492 -0.00037395907897 0.031876650789 0.036457857644 
0 0.010952505912 0.0082179697106 0.00038817886672 0 0 0 0 0.027019049368 
0.0098209463155 0.0058924049509 0 0 0 0 0 0.0079253036905 0.011441941389 
-8.1259935774e-06 0 0 0 0 0.02617422594 0.010807751895 0.0064638824129 0 
0 0 0 0 0.0071903113481 0.0054966806283 0.060674161973 0.014394843349 0 
0.034150823521 0.1606164465 0.0055541613295 -0.00069152258906 0.18831790365 0 0.0054312889264 -0.0002894012139 0 
0.00076545102105 0.0032134373389 0 0 0.011217454478 0.0081307360822 0.004718297342 0.058177519449 0.013568509285 
0.00026669663191 0.035279896823 0.14511331696 0.037741787952 -0.0010890157681 0.38600070391 0.0021890886754 0.00757578577 -0.0021298909748 
0 0.00078207387622 0.0052857926954 0 0 0.012474366999 0 0 0 
0 0 0 0 0 0 0 0 0 
0 0 0 0 0 0 0 0 0 
0 0 0 0 0 0 0 0 0 
0 0 0 0 0 0 0 0.01483548078 -0.031113877621 
0.0041972539713 0.013695814441 0.06804899427 0 0 0 0 0 0 
0 0.02007496827 -0.0051097668999 0.0052827487135 0.021653704966 0.11952068 0.011546768336 0.029901544546 0.001206281597 
0 0 0 -0.00039151607691 0 0 0.0027152455334 0 0 
0 0.012947667678 0.025697031293 0.0026096683162 0 0 0 0 0 
0 0 0 0 0 0.019799733824 0.52857625208 0.10916230779 0.035211505951 
0.07177392946 0.08173891498 0.0056513505628 0.11750475228 0.017208730052 0.067712551946 0.091771338929 0.0022311095016 -0.00079500397034 
0 0.011571137782 -0.008642752216 0 0 0 -0.0035723371843 0 0 
0 -0.0015317402737 -0.001899889555 -0.002058241163 -0.0027120617805 0.0016809163494 0.0010046588706 -5.7662149092e-05 0 
0 0 -0.00084989577534 0 0 0 0 0 0 
0 0 0 0 0 0 0 0 0 
0 0 0 0 0 0 0 0 0 
0 0 0 0 0.040947736336 -0.020591618712 0.0347712225 0.030669399688 0 
0 0 0.026662883876 0.025346711403 0.025908315422 0.038651597404 0.040965799671 0 0 
0 0 0 0 0 0 0 0 0 
0 0 0.055581489767 0.011114254002 -0.0013531030264 0 0.011860899278 0.012191543189 0.045611515539 
0.063188828958 0.057288328987 0.043667987721 -0.0013798462402 -0.018401562431 -0.015007750876 -0.015026570957 0.014498667978 0.033743555049 
0.031980446395 0.016812016969 0.0019173349535 0.031175060427 0.027844563647 0.033381615137 0 0 0 
0 0.044318883932 0.0056647556601 0.0095253828457 0 0.035928641015 0.037415296105 0.027282922298 0.025317738374 
0 0 0 0 0.0080049919637 0.011982542569 0.0077728077072 0.0071329507084 0.0097847121421 
0.0026481500578 0.010637859658 0.0068944070306 0.011744547103 0 0 -0.00015312620241 0.0041631643128 0 
0 0 0 0 0 0 0 0 0 
0 0 0 0 0 0 0 0 2.7782226663e-05 
0 0 0 -0.00015115062167 -0.00028896422391 -0.035393543221 0 0 0 
0 -0.00022755712339 0 -0.003590767796 0.0044768392793 0.00010064097746 -0.081505927568 0.11062777933 -0.0024049123821 
0.0037825907987 -0.0010372838836 -0.00036836110689 -0.0005084162477 0 0.00026791533615 0 0 -0.00013397389439 
0 0 0 0 0 0 0 0 0 
0 0 0 0 0 0 0 0 0 
0 0 0 0.00041284478599 0.016818439609 0.00013573450228 0.0015400028879 -0.00073159663437 -0.0042429713492 
0 0 0 0 0 0 0 0 0 
0 0 0 3.2074816753e-05 0 0 0 0 -3.4134244279e-05 
0 -3.0664884444e-05 0 0 -0.0012943323149 -0.02661353386 0 0 -0.0002019115898 
0 -5.4650065979e-06 0 -0.006398146812 0.0037451567724 0 0.22584449007 -0.0087872251519 0.0070172041062 
-0.0026050269094 0.0061636796794 -0.002449951033 0 0 0 0 0 0 
0 0 0 0 0 0 0 0 0 
0 0 0 0 0 0 0 0 0.0032258867247 
-0.0002090393674 -0.00044861462705 0 0 -0.0026782362825 0.014314810104 5.0076505577e-05 -2.5503364124e-05 -0.010442557111 
0 0 0 0 0 0 0 0 0 
0 0.00069544956596 0.00056197196816 -0.00010732709556 0 -3.7743442629e-05 0 0 0 
0 0 0 0 0 0 0 0 0 
0 0 0 0 0 0 0 0 0 
0 0 0 0 0 0 0 0 0 
0 0 0 0 0 0 0 0 0 
0 0 0 0 0 0 0 0 0 
0 -0.0020081480735 0 0.10859077007 -0.0025440169403 0 0.119215654 -0.0006728481463 -0.0065879079702 
-0.00050408339797 0.0037947536187 0 0.03514008395 0 0.093837893477 0.019661294493 0 0.13128352388 
0.19986316837 0.026900847026 0.0043735568753 -0.0008016041788 0 0 0 0 0 
0 0 -0.0046561355311 0.017350640067 0 0 0 0.012989200126 -0.0064959478179 
-0.00023736740898 0.01047556268 0.013101342204 0.040041742717 0.059562369821 0.084865469115 0.011037973875 0.014224697706 0.012478200527 
0.0021647964037 -0.0022639383967 0.049837676049 0.067103593455 0.025121099526 0.061622189598 0.1676450494 0.0057869260517 0.01040287898 
0.0016831879833 0.032861037015 0 0 0 0 0 0 0 
0 -0.00036086290401 -0.00065784666536 0.050775218582 0.034318729269 0.12069178659 0.0072962324496 -0.00059568139416 0 
0.10977440305 -0.004842180506 0 0.11049257936 -0.0041503235032 0 0.12761725512 -0.0015322317185 -0.0060734133753 
-0.0018275526901 -0.003432571721 0 0.031539390251 0 0.090412569363 0.025397845782 0 0.147915828 
0.12192797447 0.0075552733358 -0.0024257199358 0.0058538906464 0 0 0 0 0 
0 0 0.015004462697 -0.0040515753677 0 0 0 -0.009199953865 0.015081811047 
-0.0016448879644 0.010942994086 0.0089597638293 0.05846556708 0.043544358 0.085693930097 0.015604132117 0.0097730192633 0.0067289724251 
0.0028643789718 -0.0031070014921 0.067410721949 0.049594088359 0.026822371979 0.065016725516 0.15382451901 0.016273772646 0.0077651929413 
-0.00022878273682 0.035385797489 0 0 0 0 0 0 7.3736012901e-05 
0 0 -5.1177058468e-05 0.1178094555 0.043730256089 0.052655682182 0.0028908785059 -0.0089836697754 0 
0.11100980367 0 0 0 -0.00052413381164 0 0 -0.00013070067037 0 
0 -0.0016503387219 0 0 0 0.0033599364797 0 0 0 
0.0073340078079 0 0.013964759057 0.0001774495285 0.0092931628656 0 0 -0.00023037928502 0.0011510039608 
0 0 0 0 0.0020127329797 0.0022297021663 -0.00098828056465 0.0012603519536 -0.00068286814418 
0 0 0 0 0 0 0 0 0 
0 0 0 0 0 0 0 0 0 
0 0 0 0 0 0 0 0.00030265543314 0 
0 0 0 0 0 0 0 0 0 
0 0 0 0 0 0 0 0 0 
0 0 0 0 0 0 0 0 -0.00073578890052 
-5.7942915419e-05 0 -0.00055862361703 0 0 -0.0030443974389 0 0 0 
0.0011169007895 0 0 0 0.0049498684452 0 -0.0011580326577 0.014886052535 0.0082554791813 
0 0 0.0027450174681 -0.00049840229871 0 0 0 0 0.0025151824145 
0.0017744787276 -0.00055669982612 -0.00072594947259 0.002671282262 -0.0010226158904 0 0 0 0 
0 0 0 0 0 0 0 0 0 
0 0 0 0 9.1047372367e-05 0 0 0 0 
0 0 -0.00025721153761 0 0 0 0 0 0 
0 0 0 0 0 -0.00017382874626 0 0 0 
0 0 0 0 0 0 0 0 0 
0.60972193324 0.0048148482315 -0.00069152258906 0.043702878878 -0.00027871915653 -0.0016151141854 0 0 0 
0 0.0025136046729 -0.0034330333466 0 0 0.016610975053 0 0 0 
0 0 0 -0.0026096514825 0.007309451948 0 0.059097581141 0.013801466096 -0.0012188738894 
0 0 0 0 0 0 0 0 0 
0 0 0 0 0 0 0 0 0 
0 0 0 0 0 0.027942080577 0.061327614397 0.014954280587 0.0022522799623 
0 0 0 0 0 0 0 0 0 
0 0 0 0 0 -0.0024444716843 0 0 -0.0012627557019 
0 0 0.0036996557386 0 0 -0.00052440557705 0 0 0 
0 6.4779954583e-05 -0.00017462693403 0 0 0.020967024584 0 0 0 
0 0 0 0.0023432505794 -4.2536156728e-05 0 0.004054653269 0.053159757086 0 
0 0 0 0 0 0 0 0 0 
0 0 0 0 0 0 0 0 0 
0 0 0 0 0 0.078608356136 0.019385437488 0.017663692137 -0.00010686932313 
0 0 0 0 0 0 0 0 0 
0 0 0 -0.0023048575237 0 0 0 0 0 
0 0 0.0069885211585 0 0 0.10936152324 -0.010281134494 0.0054917303102 0.017963871402 
0.015250492105 0.028775162186 -0.0001791154868 0.032426808871 0.0304968599 0.025351876377 0.022865435106 -0.00011518964251 -0.00033226819914 
0.0025506689227 0.0045658203584 0.014143114349 0 -8.3409133793e-05 0 0 0 0.00037052686496 
5.9501884904e-05 0 0 0 0 0.0042964856767 0.027682291134 0.072143553374 0.11015384206 
0.091944510289 0.0094722398851 0.001779412277 0 0 -0.00028318478579 0.016990726507 -0.00062950028489 0 
0 0 0 0 0.014296902552 0.015160914383 0.002430484924 0 0 
0 0.00038295290191 0 0 0 0 0 0 0 
0 0 0 0 0 0 0 0 0 
0 0 0 0 0 0 0 0 0 
0 0 0 0 0 0 0 0 0 
0 0.083415018702 0.039104098657 0.0043953635874 0.034758942836 0.0032477005612 0 0 0 
0 0 0 0 0 0 0 0 0 
0 0 0 0 0 0 0 0 0 
0 0 0 0.042113813195 0 0 0 0 0 
0.10897623876 0.039075415998 0 0 0 0 0.00076965786284 0.001182570079 0 
0 0 0.095351365059 0.068664738014 0.054099435548 -1.9127523093e-05 -0.00068375904489 -0.0033155602041 0 
0 0 0 0.001346036156 -0.00025635414887 0 0.00014931304932 -0.0022647679626 0.010481379886 
0.025725384386 -0.001713835518 0 0 0 0 0 0 0 
0 6.9012811572e-06 0 0 0 0 0 0 0 
0 0.0018378223593 0.0001249156897 0 0 0.00062798029696 0 0 0 
0 0 0.018219567015 0.03213944116 0.074465284367 0 0 0.025435603953 0.025477815524 
0 0 0.0062571737429 0 0 0.0070598000668 -0.001808254337 0 -0.0024288314427 
0.024482837946 0.024248124544 0 0 0 -0.00016681826759 0 0.00011139352982 0 
0 0 0 3.2074816753e-05 0 0 0.0014750513607 -0.00031562655609 4.9671936111e-05 
-0.0046927268833 0.027787372859 0.0033405686011 0.019852462621 0.017710488401 -3.0194754103e-05 0.00017658292202 0 0.018723850028 
0 0.015316360208 0 0 0 -0.00014441890715 0 0 0 
0 0 0 0 0 0 0 0 -9.1105259926e-05 
-0.001422906952 0 0 0 0 0.017023092516 0.016642690288 0.0062898381528 0 
0 0 0 0 0 0 0 0 0 
0 0 0 0 0 0 0 0 0 
0 0 0.002236111403 0.0016427973059 0 0 0 0 0.0019263275844 
0 0 0 0 0 0 0 -0.00039035510797 -0.003625690821 
0.053076879563 0.0055532386019 0.0023641513498 0 0 0 0 0 0 
0 0 0 0 -0.00016327710409 0 0.015069519173 0 0 
0 0.006452042811 0 0.00033458403611 0.0058960512835 0 0 0 -0.0018253108057 
0 0 -0.0054295168109 0 0 0 0 0 0 
-0.0024940215413 0.01135242934 0.013836953848 0 0 0 0 0 0 
0.064404505851 0 0 0 0.00018858970679 0 0 -0.00037420057293 -8.5861676445e-05 
-0.00014507053818 -0.019072508619 0.032321790615 0.11677734433 0.12827369236 0 -0.0008392772662 0 0 
-0.00032284222736 -0.0016352401668 -0.00017741414679 0 0 0 0 0.0064484004594 0.0062393242489 
0 0 0 0 0 0 0.0061875480798 0.004545904795 0 
0 0 0.0026258402993 0 0 0 0.14619489781 0.13846140108 0 
0 -0.0031920081072 -0.00044244471884 0 0 -0.00092942674775 0.39042613729 0.15442307677 0.0036379788149 
0.0035417862755 0.014236843837 0.16026707704 0 0 0.050780202001 0 -0.003329921395 0 
1.8328466716e-05 0 -0.00028576031981 0 7.6758832533e-05 0 0 0 0 
0.073727023243 -0.00059758548893 0 0 0.011919593622 0 -0.00042610399849 -0.00086607620433 -0.0010360608221 
-0.0042251715472 0.0058543758195 -0.00071954822899 0.057395994385 0 0 0.020377221252 0 0.031595084744 
0 0.010480010287 0 -0.00049477537938 0.0090447307212 0 0 0.006056805828 0.0015470298207 
0.0030280733937 0 0 0 0 0.1043472211 0 0 0 
0.0032415435967 0 0 0 0 0.011039968414 0 0 
Displacement%20Magnitude 1 1484 double
0 0 0 0 4.2300001322e-05 4.177249616e-05 5.3073226296e-05 5.3003818048e-05 3.1428646333e-05 
5.9858782721e-06 2.883030094e-05 6.3806104173e-06 5.4516749776e-05 5.407185297e-05 1.8311224476e-05 3.0150167801e-05 1.8424558144e-05 3.044562069e-05 
0 0 0 0 0 0 0 0 0 
0 0 0 0 0 0 0 0 0 
0 0 0 0 0 0 0 0 0 
0 0 0 0 0 4.2032895834e-05 4.6042618279e-05 4.985722428e-05 5.3887376751e-05 
5.5959569833e-05 4.4535843114e-05 2.1043410212e-05 2.994172953e-06 4.4184306436e-05 4.7922302045e-05 5.18763954e-05 5.5629450057e-05 5.3415675463e-05 
3.2802704018e-05 8.9999143351e-06 1.1253813594e-06 4.5515636667e-05 4.9330094368e-05 5.3401166457e-05 5.5122184518e-05 4.5072358817e-05 2.0685027641e-05 
3.006076226e-06 4.365710329e-05 4.7391162242e-05 5.1349869945e-05 5.5074915531e-05 5.3292689128e-05 3.3010909853e-05 9.3759741039e-06 1.0648437838e-06 
5.3043355468e-05 3.3537274617e-06 7.3912515092e-06 1.4167945859e-05 2.0955789522e-05 2.9064161012e-05 3.7272540283e-05 4.5130848822e-05 1.6700877356e-06 
5.0949316406e-06 1.0798270579e-05 1.7291494061e-05 2.4940894707e-05 3.319497359e-05 4.1228309173e-05 4.9060487534e-05 3.3243753463e-06 7.6476806236e-06 
1.4213442188e-05 2.0965321554e-05 2.9058153617e-05 3.7255488452e-05 4.5080599017e-05 1.7927574875e-06 5.0777285627e-06 1.0893841711e-05 1.7316793032e-05 
2.4942832794e-05 3.3182076818e-05 4.1186394624e-05 4.8998049212e-05 6.4151682793e-07 1.736721269e-06 5.7549562864e-06 3.4114337958e-07 1.0722797305e-06 
2.3962746175e-06 1.3291296857e-05 9.7981321632e-07 1.5902976107e-06 1.2878129882e-05 1.1668868492e-06 2.8277510342e-06 3.3506241094e-06 1.2165533927e-06 
1.5137384633e-06 4.5127370288e-06 1.9145123013e-06 1.3282096626e-06 6.2014345974e-07 6.093904248e-07 1.4258496551e-06 5.6424589592e-06 3.0913091142e-07 
9.5037186061e-07 2.3907570247e-06 1.2697195481e-05 1.6602531649e-06 1.429551226e-06 1.0732197126e-05 1.155706055e-06 2.7650032217e-06 3.2118146608e-06 
1.1897442246e-06 1.5403925342e-06 4.5259966703e-06 1.9058094148e-06 1.3248038815e-06 6.6519051827e-07 5.1735386527e-05 5.1206045697e-05 5.0529886906e-05 
4.8591812836e-05 4.583597047e-05 4.3768956491e-05 4.269366615e-05 5.227366722e-05 5.1397417448e-05 5.0940542318e-05 4.975083382e-05 4.7208499168e-05 
4.4701934236e-05 4.3129345387e-05 4.2433220625e-05 5.1664611504e-05 5.1087532414e-05 5.0359254101e-05 4.8321861445e-05 4.5508601838e-05 4.3339991445e-05 
4.220734873e-05 5.2207626459e-05 5.131022629e-05 5.079592768e-05 4.9518120403e-05 4.6890834715e-05 4.4305982134e-05 4.266817164e-05 4.1924173652e-05 
4.5297041737e-05 4.8219822221e-05 5.1055630589e-05 4.3789316693e-05 4.6792330547e-05 4.9595691769e-05 5.2606292051e-05 5.9280368507e-05 6.2162386254e-05 
5.6562561669e-05 6.1277555363e-05 5.4330034955e-05 4.4795661668e-05 4.7743564693e-05 5.0597115727e-05 4.3274521465e-05 4.6297310505e-05 4.912034906e-05 
5.2122259686e-05 5.8810182771e-05 6.2689257004e-05 5.618027168e-05 6.2302683839e-05 5.2227696402e-05 1.3133303523e-05 1.0059333255e-05 1.5627698524e-05 
2.4295445849e-05 2.1251060177e-05 2.7278118539e-05 3.4538909561e-05 3.978547357e-05 4.5954852192e-05 3.2200183497e-05 3.7123496373e-05 4.2715599756e-05 
4.9429912197e-05 1.3012436044e-05 9.717554892e-06 1.5770157759e-05 2.4416003138e-05 2.1352418901e-05 2.7468400843e-05 3.4601376557e-05 3.9775516985e-05 
4.5902078433e-05 3.2414882334e-05 3.7131324177e-05 4.2685129447e-05 4.9366828356e-05 5.7848720539e-06 2.9930217858e-05 3.8983074506e-05 5.0396307105e-05 
3.4149546694e-05 4.5148349993e-05 5.3209432481e-05 3.8353127087e-05 5.0518406907e-05 3.4308342828e-05 4.5232855811e-05 5.2504775601e-05 5.4435273497e-05 
1.8401532746e-05 3.0161726927e-05 0 0 0 0 0 0 0 
0 0 0 0 0 0 0 0 0 
0 0 0 0 0 0 0 0 0 
0 0 0 0 0 0 0 0 0 
0 0 0 0 0 0 0 0 0 
0 0 0 0 9.0028364969e-07 3.3169146262e-05 9.1098991705e-06 5.2306606708e-05 4.3919794112e-05 
4.7659533559e-05 5.1609433873e-05 5.5159540421e-05 3.6103510867e-07 3.6298828849e-07 1.8227412458e-06 1.7519447311e-06 4.3112919141e-05 4.2849306194e-05 
4.4983003213e-05 4.4719891255e-05 4.875071012e-05 4.6846374633e-05 4.5779725761e-05 4.6581503409e-05 5.275165319e-05 5.0734922397e-05 4.9597749752e-05 
4.8486438604e-05 5.0470647559e-05 5.5455724657e-05 5.4767846852e-05 5.3633253003e-05 5.2499922971e-05 5.4478998309e-05 4.9400205519e-05 5.4508704422e-05 
5.5046367283e-05 5.414560719e-05 5.5178561875e-05 2.727698425e-05 3.8779924819e-05 4.4632571e-05 3.8949511839e-05 4.950409475e-05 4.965075755e-06 
1.4611536696e-05 2.1210634229e-05 2.7170070563e-05 1.4496886699e-05 2.9332954919e-06 5.1872285888e-06 4.9029226258e-05 3.3191778845e-05 4.1197928305e-05 
2.4958893134e-05 1.5339448302e-06 1.1159273464e-05 5.0282699606e-06 1.7323195511e-05 6.2433621055e-07 6.4155001836e-07 2.4520242659e-06 2.5270218529e-06 
5.1007362715e-05 5.1041025562e-05 4.7071801405e-05 4.7043739486e-05 4.1266191639e-06 6.1708287371e-06 3.3878405266e-06 4.1998190373e-06 9.3021338157e-06 
1.2791772571e-05 7.5548024362e-06 9.2868469908e-06 6.0796865383e-06 1.5688724425e-05 1.9095283259e-05 1.4260074048e-05 1.27190248e-05 1.5661946584e-05 
2.2938606098e-05 2.7000241738e-05 2.097901328e-05 2.2938799872e-05 1.9087039277e-05 3.1127896755e-05 3.5228500888e-05 2.9064295877e-05 3.1133692107e-05 
2.7000028723e-05 3.9228264337e-05 4.3142926569e-05 3.7255667881e-05 3.5232668375e-05 3.9242535032e-05 4.5102304131e-05 4.3166294343e-05 9.6427314688e-07 
1.1261003511e-06 7.1002391782e-07 3.0321316202e-07 4.349700593e-07 1.9782874696e-06 9.6774232935e-07 5.8721617773e-07 5.0894723591e-07 1.1674097815e-06 
3.4180914196e-07 5.3799522794e-07 1.5462514672e-06 8.3324829286e-07 1.9970175988e-07 6.1208026337e-07 6.4741272686e-07 6.9670153128e-06 1.4205302696e-06 
2.7837550179e-06 1.7156730844e-06 2.6630389549e-06 1.0625536956e-07 2.2697130159e-07 3.1233389088e-07 2.8635982144e-07 2.7550634649e-07 5.0492057183e-07 
2.6262363646e-07 2.8301131188e-07 4.1451826351e-07 6.1496831609e-07 6.2287869536e-07 2.9617178248e-07 2.7510989946e-07 5.5737130691e-07 2.085128195e-07 
6.6345325209e-08 4.5348470232e-07 8.3307193061e-07 7.3230854858e-07 1.1498737381e-07 2.8145779415e-07 6.8450413741e-08 7.7136271618e-07 1.3572628488e-06 
1.0371771746e-06 9.7334170451e-07 1.5185657084e-06 9.5786782752e-07 1.5044576339e-06 9.992541087e-07 7.1528101131e-07 6.9865585573e-07 8.0044963853e-07 
1.1710206449e-06 2.3398867167e-06 2.0044147131e-06 5.6451829561e-07 4.8832502651e-07 8.3670483535e-07 1.1011628866e-06 1.3805047503e-06 1.6159432968e-06 
8.3244275459e-07 7.8547855043e-07 8.3913304706e-07 9.7645895504e-07 7.3197857072e-07 1.1298492555e-06 1.3405727736e-06 7.6817992368e-07 9.6196574095e-07 
1.1169567224e-06 6.9497995835e-07 3.0160814764e-07 4.0017073377e-07 2.1753573376e-06 8.6754124661e-07 5.8624641456e-07 4.9747406398e-07 1.2046247008e-06 
3.5314902772e-07 5.1114455866e-07 1.5084877153e-06 9.4877482808e-07 2.1364262263e-07 6.2022810909e-07 6.724533433e-06 9.8902565899e-07 1.4345430971e-06 
1.6759213564e-06 2.4685390886e-06 2.767578767e-06 2.1297138818e-07 1.2151338803e-07 3.2932257895e-07 2.7014420779e-07 2.8559030029e-07 4.9287921141e-07 
2.7420228252e-07 2.6105796573e-07 6.0109827261e-07 4.1183056246e-07 6.0416210856e-07 2.7748455705e-07 2.8870204913e-07 5.4690564311e-07 7.5391327125e-08 
2.1552975118e-07 8.3385535645e-07 4.639462965e-07 7.3547655485e-07 3.1107573882e-07 1.1164243212e-07 5.5567077886e-08 7.8128971915e-07 1.064579771e-06 
1.3334793272e-06 9.907877989e-07 1.5235235668e-06 8.6190384129e-07 9.3339400569e-07 1.168552795e-06 8.1716416844e-07 7.1729210323e-07 8.8796598609e-07 
2.2339557814e-06 1.1573757755e-06 2.074750618e-06 5.6628186538e-07 4.8701156073e-07 8.2395847798e-07 1.6849168113e-06 1.3854191631e-06 1.1114218768e-06 
8.2060859431e-07 9.049830123e-07 7.4372508206e-07 7.7027372239e-07 7.196099081e-07 1.1357823205e-06 1.3312286043e-06 7.8744068809e-07 4.2174616668e-05 
4.4485964181e-05 4.2888179055e-05 4.7001744441e-05 5.2246258065e-05 5.1369941628e-05 5.0867678632e-05 4.9620954227e-05 4.1961778864e-05 4.2221201774e-05 
4.2417571643e-05 4.216902747e-05 5.2625084471e-05 5.2590775049e-05 5.1960608697e-05 5.1928142008e-05 5.1276238524e-05 5.1532294178e-05 5.1706363488e-05 
5.1495962435e-05 5.0711007991e-05 5.1065234153e-05 5.1158725142e-05 5.122275046e-05 5.0987805781e-05 4.9135255902e-05 5.0127307398e-05 5.043194473e-05 
5.0643705291e-05 5.0032827081e-05 4.6400278985e-05 4.7800363202e-05 4.8426772326e-05 4.7655750353e-05 4.9010626289e-05 4.4085878499e-05 4.5136539241e-05 
4.5650797104e-05 4.4969171343e-05 4.6232330496e-05 4.2763596446e-05 4.3298829975e-05 4.3541391226e-05 4.3883902042e-05 4.3079653904e-05 4.2445832792e-05 
4.2526459746e-05 5.8039889533e-05 5.364577613e-05 3.6656932332e-05 2.9677092403e-06 4.8005439579e-05 4.7601227665e-05 5.5000162136e-05 5.6150089927e-05 
5.2878059534e-05 5.9811598944e-05 5.0953403574e-05 1.7259403283e-05 5.1418318952e-05 1.4570037452e-05 1.432222814e-06 4.5639840893e-05 2.2757812549e-05 
3.9049100594e-05 5.6471810555e-05 5.6692293647e-05 5.4822803911e-05 5.2950925195e-05 4.7012047748e-05 4.8908831992e-05 4.6636935406e-05 5.0391588622e-05 
5.2440172676e-05 4.9441378802e-05 5.5013433965e-05 5.695235731e-05 5.3797336078e-05 5.4997878281e-05 5.2280777718e-05 5.5789631731e-05 4.8442048692e-05 
5.7051866614e-05 3.1677480499e-05 1.6782911825e-05 3.9653932855e-05 4.655851472e-05 2.6034706292e-05 8.4468069745e-06 3.0365970943e-06 7.0558675483e-06 
1.3399822857e-06 2.0932768321e-06 4.7020146549e-06 1.0336278021e-05 5.5446957434e-06 1.6212909737e-05 2.7435365565e-05 6.1962538528e-05 5.9660317858e-05 
5.7385218222e-05 5.8459888447e-05 4.8105881268e-05 5.1230136345e-05 4.9740663255e-05 4.9511812782e-05 5.1203114053e-05 5.3117444954e-05 5.6065502727e-05 
5.4276402067e-05 5.6815549891e-05 5.712739608e-05 5.2729281235e-05 5.6365721895e-05 4.1594973926e-05 5.6034080656e-05 5.8460925559e-05 5.2527700258e-05 
2.4716828497e-05 5.7211473634e-05 5.3161676151e-05 3.6500125419e-05 2.9469184324e-06 4.749673037e-05 4.7647199487e-05 5.4582229723e-05 5.5720117033e-05 
5.294958295e-05 5.9011507102e-05 5.0444618148e-05 1.7170043474e-05 5.0942361409e-05 1.4544238421e-05 1.4637733653e-06 4.5125824292e-05 3.8767454201e-05 
2.2497691262e-05 5.5997596487e-05 5.4313298194e-05 5.6133000591e-05 5.2496729153e-05 4.8389530581e-05 4.649067511e-05 4.6128391789e-05 5.1925286972e-05 
4.9872466369e-05 4.8935521165e-05 5.6360806559e-05 5.4567266638e-05 5.454587329e-05 5.3291910567e-05 5.1789077995e-05 4.8485945611e-05 5.5609104262e-05 
5.6694374777e-05 1.6766493118e-05 3.1816202216e-05 4.6598541646e-05 3.983058317e-05 2.5956671212e-05 3.2227622409e-06 8.8119172185e-06 7.1559851175e-06 
1.4053297079e-06 2.0176725662e-06 1.0480637809e-05 4.5864777026e-06 5.5079353365e-06 1.6167268623e-05 2.718836119e-05 5.9577022615e-05 6.1987912021e-05 
5.684059986e-05 5.8214751521e-05 4.761307944e-05 4.926427891e-05 5.0764519001e-05 4.90292053e-05 5.0709938259e-05 5.2662095012e-05 5.6292058195e-05 
5.382403468e-05 5.5605466886e-05 5.6583898865e-05 4.146146248e-05 5.6168231109e-05 5.3077777235e-05 5.6090272699e-05 5.7962593696e-05 5.2048670368e-05 
2.4543938849e-05 1.1573964978e-05 2.1543482452e-05 3.1083940208e-05 6.0561975939e-06 7.2355682515e-06 2.7364387445e-05 1.3139623239e-05 1.7621757072e-05 
3.9637697152e-05 3.5494150919e-06 2.0343067787e-05 2.4211737593e-05 1.3753404684e-05 8.4141883712e-06 1.6241377988e-05 3.2528566069e-05 3.727282366e-06 
2.3669932746e-06 4.5437634383e-05 7.3187798862e-06 5.1630762444e-06 1.078154064e-05 2.2212439554e-05 1.9186101378e-05 1.5653499077e-05 1.2999540439e-05 
1.6701988906e-05 2.8488760897e-05 2.5635845581e-05 3.0914404177e-05 3.8566682841e-06 5.1729919277e-06 2.4462909875e-06 6.6584485216e-06 9.7530449442e-06 
4.5256011596e-06 1.3699569115e-05 1.7261888818e-05 9.7223144205e-06 2.2172684732e-05 2.650261087e-05 1.8929813798e-05 2.0900020236e-05 1.5502047283e-05 
2.9650772234e-05 3.4001396436e-05 2.7613823564e-05 3.8330051701e-05 4.2346405552e-05 3.5454013274e-05 4.2808163711e-05 3.3983629149e-06 2.123257224e-06 
4.9058365457e-06 7.5363827887e-06 5.2282935931e-06 2.1961781245e-06 3.0092406579e-06 4.6583909852e-06 2.3839482607e-05 1.0612860838e-05 3.6279222053e-05 
3.3424563113e-05 2.9944211904e-05 3.9521332685e-05 3.5465973608e-05 3.1667666621e-05 8.4348669772e-06 6.1035237427e-06 9.2218938043e-06 1.2439986991e-05 
1.0106587406e-05 1.1997563041e-05 1.4536529875e-05 1.3812127229e-05 1.4547183822e-05 1.6792147027e-05 2.6329941297e-05 2.4361744369e-05 2.8979081761e-05 
2.2708347712e-05 2.0820359887e-05 1.9400677905e-05 1.8877099572e-05 1.8160928455e-05 1.1636034032e-05 2.1584321321e-05 3.1085884083e-05 6.1702898157e-06 
7.2381275464e-06 2.7463315907e-05 1.3188327633e-05 1.7655435564e-05 3.9608381008e-05 3.6595120275e-06 2.0425280854e-05 2.422789863e-05 1.3791507998e-05 
7.6608133773e-06 1.6305591087e-05 3.2559363671e-05 3.7149621325e-06 2.4162645193e-06 4.5387332089e-05 4.8704277799e-06 7.2828455877e-06 1.0207613381e-05 
1.9290106004e-05 2.2314037224e-05 1.3168656408e-05 1.5824791386e-05 1.6802745495e-05 2.5758646318e-05 2.8670844654e-05 3.1013650308e-05 5.0953193529e-06 
3.6820366812e-06 2.4337383434e-06 9.7943688339e-06 6.928971974e-06 4.5729851203e-06 1.7293424621e-05 1.3729875178e-05 9.745559858e-06 2.6504985111e-05 
2.2185462104e-05 2.0927961451e-05 1.895316843e-05 1.5533911425e-05 3.3988270076e-05 2.9649755355e-05 2.7627798726e-05 4.2305402502e-05 3.8305498475e-05 
3.5446966062e-05 4.2778594864e-05 2.1486866208e-06 3.3171687543e-06 7.3149487136e-06 4.7555656411e-06 5.1861293057e-06 2.2433266679e-06 3.0842214114e-06 
4.7055498958e-06 2.3929212015e-05 1.0778014482e-05 3.346634592e-05 3.6290899606e-05 3.0011932924e-05 3.9494825968e-05 3.5476325581e-05 3.1681077199e-05 
9.2830036962e-06 6.1191869881e-06 8.4902499323e-06 1.2489876681e-05 1.2059026296e-05 1.0151498188e-05 1.3867350174e-05 1.4598841026e-05 1.4592975532e-05 
1.6839840748e-05 2.9020997607e-05 2.4426130443e-05 2.6365104391e-05 2.2739061798e-05 2.0886593379e-05 1.9439571168e-05 1.8930974658e-05 1.8238534502e-05 
1.063722119e-05 2.4348486588e-06 1.4495142778e-06 1.2485135966e-06 1.1398700436e-06 4.7101481222e-05 4.4751810397e-05 4.7716078101e-05 4.6729105631e-05 
4.5228115711e-05 4.0329830426e-05 4.9567233294e-05 4.7784766421e-05 4.7603609257e-05 4.6365012361e-05 4.6197213476e-05 4.6312196914e-05 4.0943580436e-05 
4.8472935154e-05 4.4013464776e-05 4.8795536802e-05 5.1985896531e-05 5.0881531862e-05 5.0391929836e-05 3.9385195152e-05 3.5227660871e-05 3.7139323505e-05 
4.912500139e-05 4.8954625457e-05 4.6255455227e-05 4.8521768664e-05 4.8702361342e-05 4.6346944794e-05 4.8870641463e-05 4.8565909435e-05 4.7712636586e-05 
4.6582254332e-05 4.5293749282e-05 4.7908387043e-05 4.7025161055e-05 4.7870570187e-05 4.5913488056e-05 4.5162250322e-05 4.6855685002e-05 4.7504055151e-05 
4.7116774987e-05 4.4484002418e-05 4.3984267697e-05 4.5757812905e-05 4.5217758559e-05 4.8007407347e-05 4.3639355976e-05 4.316527201e-05 4.9544398507e-05 
4.6709895314e-05 4.8350818219e-05 4.9653602547e-05 4.7102011322e-05 4.7384644005e-05 4.9107154216e-05 3.7883849656e-05 4.0162411279e-05 4.0460949318e-05 
4.3305295377e-05 4.3121074439e-05 4.3657204293e-05 4.5982852726e-05 4.2867357509e-05 4.4956882184e-05 4.7255805579e-05 4.7774502488e-05 4.8209796735e-05 
4.8530162277e-05 4.759235047e-05 4.7118955024e-05 4.2910464107e-05 4.8039530338e-05 4.7016927742e-05 4.4672691671e-05 4.7292135234e-05 4.6649263491e-05 
4.4761947712e-05 4.0455146551e-05 4.927846547e-05 4.7581026446e-05 4.7258719318e-05 4.6767887106e-05 4.6136375478e-05 4.587783591e-05 4.0941363981e-05 
4.8028403079e-05 4.3515105933e-05 4.8720623749e-05 5.0269832522e-05 5.1493518888e-05 4.9988418211e-05 3.5378541246e-05 3.9130097296e-05 3.7337696806e-05 
4.8862058069e-05 4.9054820885e-05 4.6183141315e-05 4.8558354721e-05 4.844650178e-05 4.6269150469e-05 4.8303357267e-05 4.8664508498e-05 4.6432542967e-05 
4.7537221842e-05 4.5201641034e-05 4.6654748986e-05 4.7610176804e-05 4.761323233e-05 4.4714230718e-05 4.5508921245e-05 4.7153281767e-05 4.6451823145e-05 
4.6696858719e-05 4.3510715383e-05 4.4029926355e-05 4.5310422735e-05 4.4738416511e-05 4.3572803141e-05 4.8344790816e-05 4.2771293538e-05 4.8799548278e-05 
4.6225525935e-05 4.9215182784e-05 4.7896001474e-05 4.6650702281e-05 4.6935564437e-05 4.86788753e-05 4.0159086576e-05 3.7924450025e-05 4.0546410682e-05 
4.3276049352e-05 4.3052384313e-05 4.360027172e-05 4.4653785245e-05 4.2818147731e-05 4.5837799011e-05 4.7078674973e-05 4.8141020123e-05 4.7859551293e-05 
4.7448369799e-05 4.7335562499e-05 4.6942956129e-05 4.2908976355e-05 4.7609796294e-05 5.3575830501e-05 6.1708874184e-05 5.6506104986e-05 5.8887516909e-05 
6.0758682806e-05 1.0087867065e-05 1.5823327742e-05 8.0595324081e-06 8.122816658e-06 1.1902224188e-05 1.1678795845e-05 1.7007026459e-05 1.7062395931e-05 
1.4560930956e-05 1.4709197036e-05 1.34329434e-05 2.1307961149e-05 2.7298090096e-05 1.9853548381e-05 1.9795882499e-05 2.2803275939e-05 2.8725998628e-05 
2.8855455702e-05 2.5823847787e-05 2.2855797647e-05 2.5885877432e-05 2.4354295466e-05 5.2979425809e-05 5.060221097e-05 3.3699054105e-05 3.8332418414e-05 
4.506526886e-05 1.0721194785e-05 1.2321724523e-05 1.9255143461e-05 1.7904259728e-05 1.4362127577e-05 9.2042134565e-06 1.4466839391e-05 1.7833659922e-05 
2.0765510781e-05 1.8210767846e-05 1.4601072623e-05 1.6286619921e-05 8.8602616599e-06 7.2520146793e-06 8.0376429757e-06 2.0395199187e-05 1.3250877655e-05 
1.6775555453e-05 1.0979576485e-05 2.0716306774e-05 2.5698238241e-05 2.4148266845e-05 2.3887295095e-05 1.3865008902e-05 2.7134597975e-05 2.4200998571e-05 
2.1065817426e-05 2.1055863994e-05 1.7651791794e-05 1.8958550032e-05 2.4332001622e-05 2.0923665304e-05 3.3986619919e-05 3.1837148689e-05 4.8537705195e-05 
4.8587579975e-05 4.6156240274e-05 4.5225247658e-05 4.7454372654e-05 5.1283110765e-05 5.2616278229e-05 5.2031492913e-05 5.1021107091e-05 5.0699496007e-05 
4.0756323194e-07 1.436523249e-07 1.3839925203e-07 3.4960963703e-07 7.3112233855e-07 5.9500646214e-07 4.1352693954e-07 2.7313907671e-07 5.0664804578e-07 
2.7783926279e-07 2.5880311244e-05 3.2125055425e-05 2.4574755733e-05 1.7444439663e-05 2.4644656952e-05 4.5400956751e-05 4.6392460734e-05 4.518051418e-05 
4.6910905655e-05 4.6089357337e-05 3.1831518183e-05 2.8680378834e-05 2.7620084135e-05 2.4223896644e-05 2.8682210199e-05 3.6274777339e-05 3.2532442722e-05 
3.1664841444e-05 3.7806431207e-06 4.7486264773e-06 3.0828243849e-06 2.1944561102e-06 3.1080420932e-05 5.2361142211e-05 5.3531247682e-05 4.738086776e-05 
4.7623562027e-05 4.0848937377e-07 4.4990774145e-07 3.9504411818e-05 4.6637643546e-05 5.3397803951e-05 4.0662276509e-07 6.927858229e-07 4.4673186429e-05 
3.650863345e-05 3.2126843004e-05 4.0310036342e-07 1.1137078589e-06 4.7504839449e-05 4.6188539058e-05 8.354805704e-06 6.8828867481e-06 4.8131163251e-05 
4.7157504487e-05 4.8265132743e-05 1.4550379318e-05 1.624906181e-05 4.6726572678e-06 6.6547085862e-07 9.0350480408e-07 8.3007459794e-07 4.9271770266e-05 
4.9506683272e-05 5.1183236133e-05 5.0959477523e-05 8.2881247616e-06 9.8670849413e-06 1.2059191224e-05 5.0916492874e-06 3.1289017403e-06 7.4779543489e-06 
5.6691638157e-06 2.175083115e-06 4.7862189679e-05 4.7752221912e-05 4.9188269034e-05 4.6464877964e-05 4.4988126367e-05 4.5525859654e-05 4.6880029833e-05 
4.1600344293e-07 8.5916251663e-07 4.771267631e-07 2.9973589434e-05 2.4335233726e-05 2.6508805102e-05 1.5456013141e-05 1.3794406113e-05 1.5443791596e-05 
1.7299323324e-05 1.4874280439e-06 1.0393741083e-06 4.6381426067e-05 4.497398788e-05 3.7919892941e-07 4.0142700628e-05 4.3604357739e-05 4.0919173373e-05 
4.9367665122e-05 4.9452594667e-05 1.3608769278e-06 2.3663721167e-06 1.0347289152e-05 5.1001178505e-05 4.3503705078e-05 7.4945235531e-07 7.2948703461e-07 
4.3757105776e-05 4.7381992386e-05 2.0984892547e-07 4.4588756459e-05 4.4331614693e-05 2.2065478248e-07 4.7227902592e-07 4.7410287435e-05 4.6668268693e-07 
1.400862481e-06 1.4840296254e-06 4.9028043259e-05 4.9061285569e-05 3.0877747308e-05 3.0774370579e-05 3.4527441262e-05 3.221472663e-05 4.328895671e-05 
4.3075159748e-05 4.6312604094e-05 4.6696875929e-05 1.1245868782e-06 1.4859278014e-06 1.1703495225e-06 5.6955580691e-05 5.6508608795e-05 5.9042311292e-05 
5.8013047091e-05 5.7836247886e-05 4.7006004118e-05 4.6423535677e-05 4.2739892034e-05 9.7702499798e-07 4.9452615962e-05 4.3038646355e-05 1.7730861924e-07 
5.0572213967e-05 2.3056956277e-07 1.1670153465e-06 1.5017325056e-06 8.289512755e-07 6.1771903649e-06 4.6222562174e-05 3.3424226844e-05 3.7107729541e-05 
3.7860946799e-05 5.8969322683e-07 7.6646579879e-08 2.8168517505e-07 3.9499671539e-05 3.9617019443e-05 3.5446878759e-05 2.2391667188e-06 4.5776432269e-06 
3.602763875e-06 2.7411379265e-05 8.3611811922e-08 1.775786008e-07 1.7685357272e-07 5.2097021976e-06 5.372431936e-06 9.0534794898e-06 4.4088949359e-05 
4.3855731089e-05 4.4243125102e-05 4.8962037334e-05 4.9002463414e-05 4.8925516633e-05 4.7822793901e-05 4.7561966139e-05 4.8650654474e-05 1.7374484833e-07 
1.7892313433e-07 2.1121005117e-07 3.0952767767e-05 2.7216263529e-05 1.6829021118e-05 7.2538226248e-07 1.3513500129e-06 1.9431691223e-06 2.2638019505e-06 
4.2318874906e-05 4.0338905978e-05 4.3087157203e-06 3.7063322813e-06 3.4090189167e-06 6.1875090104e-06 5.2865569646e-06 4.0320047179e-05 4.3278317073e-06 
4.7660313917e-05 4.7152994091e-05 4.64695932e-05 8.1706942187e-07 5.7937877716e-07 8.273433214e-07 5.4727575113e-05 5.6744160481e-05 5.5827240623e-05 
4.6479542866e-05 5.6106142993e-05 5.262652435e-05 7.139768601e-07 4.9534029076e-07 6.0218223997e-07 4.7320189766e-05 4.7411370792e-05 4.7454355385e-05 
4.7646746931e-05 3.8311621647e-05 4.9099766251e-05 4.6752892836e-05 1.2887744931e-07 2.7060063163e-07 3.1500673622e-06 4.3742569818e-05 4.654364721e-05 
4.5044628167e-05 6.1617302046e-07 4.7984100713e-05 7.1593323526e-07 1.5896517398e-06 2.8995815129e-05 2.6298008575e-07 4.8747874852e-05 5.4748501243e-05 
4.6810524348e-05 2.5433300927e-07 4.7745043689e-05 2.7084030203e-07 5.4518126705e-07 2.8080201406e-07 4.7731872407e-05 4.8409240741e-05 4.7717311318e-05 
5.6565053187e-05 5.5088833964e-05 5.6303126357e-05 3.5466546877e-05 3.9772174227e-05 8.5073925126e-06 1.1636780859e-05 9.3308503146e-06 5.0844328355e-05 
5.8439350634e-06 1.2416366906e-06 2.4391539754e-05 2.6349231195e-05 7.6940479742e-06 4.8355641172e-05 4.8136779359e-05 4.9531743788e-05 8.0247766442e-07 
9.3338603943e-07 9.0951286497e-07 5.6070721557e-05 4.1474005839e-05 4.7333121746e-05 5.4061363078e-05 5.4781852229e-05 1.3569042789e-06 1.6106138795e-06 
1.978030588e-06 4.4751895028e-05 4.0160603581e-05 4.2784334641e-05 4.5846544282e-05 4.7373388129e-05 4.720704745e-05 5.2957142702e-05 5.2915862202e-05 
2.6383489525e-07 2.6281335258e-07 4.2703809172e-05 4.5930736531e-05 2.7599748961e-07 2.7741233621e-07 5.5644736304e-05 5.5841993862e-05 4.8571586857e-05 
4.8689882405e-05 1.5536214173e-05 5.1150539754e-06 1.3733721972e-05 9.7663408155e-06 5.2891712248e-05 2.7395934012e-05 2.2713981919e-05 5.0250819697e-05 
4.893118881e-05 8.4585363122e-07 2.6507742468e-06 1.9833794042e-06 4.0457319177e-05 3.7151168263e-05 5.9352983418e-06 1.3184560007e-05 4.3023761871e-06 
2.3766584638e-06 3.5004862479e-05 3.922921107e-05 1.8914724527e-05 2.1569419439e-05 5.2833152611e-05 7.6731828731e-07 5.7517502004e-05 5.5816170299e-05 
9.4344842577e-07 1.1002716146e-06 4.7031727006e-05 5.1054197269e-07 1.4800495488e-06 1.025128389e-05 7.3549683515e-06 1.2492930464e-05 2.2729876781e-05 
4.3360907475e-05 3.2979921908e-06 4.2789157049e-05 5.2406657001e-05 1.5255517625e-06 5.2748515216e-05 5.1855866398e-05 5.4603964012e-05 2.465181481e-06 
7.7760135976e-07 5.6369252807e-05 1.5787972376e-06 3.8926104931e-05 2.0861738672e-05 4.5382729628e-05 1.3746836399e-06 4.376013802e-05 4.823931221e-05 
1.458883418e-05 5.9020485222e-05 1.3267970953e-06 1.0630928212e-06 5.5904613603e-05 5.0136243036e-05 4.5412874801e-05 2.4839816148e-06 6.0843952908e-05 
1.6568867581e-07 4.8763517899e-05 5.1795258063e-07 4.7828670069e-05 7.5274559756e-07 2.4633708178e-05 5.2290076991e-05 1.3184914118e-06 4.2880619021e-05 
5.0683445975e-05 1.942994785e-05 4.8493704504e-05 6.7112357181e-08 2.7634659819e-07 1.7139608729e-05 4.4922528396e-05 4.9184989215e-06 
Stress%20xx%20component 1 1484 double
-160283655.67 -156581199.75 110156647.69 111881644.05 -2425432.3314 -2960329.7924 2641563.2571 2222898.5766 50132327.89 
-187612202.21 139183335.96 -142223256.62 41979349.402 -13842857.449 1426707.0486 131197582.19 -984205.71537 149408036.48 
-301072037.62 196302682.24 -82883403.193 -6626593.5965 16716795.804 5698294.1074 -3475413.7628 14972262.814 69736004.273 
-175555255.22 -55722666.468 13022267.066 14036284.376 -455394.16816 -1656838.7576 39147821.841 120821200.13 -93133731.99 
-13706719.566 13014036.25 7944540.7816 -4044898.5211 12870392.478 64004013.289 -172376745.37 -55513171.608 12996483.64 
16851056.206 -1572843.7525 -2464804.7433 45684385.963 128028876.61 -2345805.4543 -2095102.8806 246994.83083 -4278629.0534 
45785918.766 -27444516.614 -17542857.151 20964530.849 -2827634.5332 -2272538.9896 -1102072.053 15265044.21 56938176.598 
-30451564.71 5747182.8907 37542632.292 -1224475.5355 -498840.36632 -3569725.7142 30292686.56 -16434168.126 -13976251.545 
10578138.339 -2981957.7843 -2280843.948 -2262785.0763 10741086.517 66538141.219 -32776732.562 -1863264.1339 33922677.111 
4044971.1896 -11018585.763 5583163.1459 99579.29087 -303941.34518 -701166.37955 -3160958.6742 -808293.62513 -6570184.6305 
4747385.1122 9495182.7705 3246658.7653 -3759813.2739 -7580132.791 -3539006.9715 304533.75343 -6887059.713 5412519.2499 
175108.67592 23057.067204 -1004366.2228 -5171903.2742 -107507.4434 -6776810.2732 4334323.1573 7768056.9015 2468413.2816 
-3060385.8438 -7598638.2465 -3224991.8959 263100.58331 -43653555.737 111297621.52 140435928.03 -56681851.61 7733341.4967 
129847435.7 103216007.08 189559656.61 -122079656.12 149248762.19 58376025.934 -212589831.92 -54629550.541 15849640.244 
16415221.846 -121394335.79 -9671684.3221 17357381.224 41434866.989 -45868861.724 113828469.22 142795989.21 -53661548.611 
18263901.318 128713372.99 100502377.63 231766210.55 -108627732.56 231271923.41 86807314.316 -190127363.12 -59240552.531 
18147444.101 16852848.527 -118698680.23 -8182974.2876 16746813.16 42194051.687 -32907792.511 -116350522.42 -200179551.5 
-200776071.17 -86704745.167 8570812.0388 11500213.367 -7714881.5935 -69966802.585 -164450965.4 -215247183.93 -145681908.74 
-32479020.772 16086443.328 2526546.4103 -31661955.062 -116575952.51 -204686076.47 -200092512.03 -85928242.405 4964583.0174 
9700860.0352 -8237520.5624 -73102477.304 -165931547.48 -218327553.16 -145828541.48 -38040214.366 14048108.209 2132039.4659 
10650364.963 54820466.825 107975044.85 3830372.4898 28891326.353 79673363.985 86006580.776 -294753036.33 -307851968.59 
-247782046.72 -231801941.25 -263008426.6 9342506.8683 54558835.366 108428397.66 3309079.4601 29213653.027 81006982.006 
58831880.603 -246943790.36 -250090122.02 -244435011.42 -204585707.92 -72855507.065 -39872052.244 -60076453.536 -24891279.563 
38846948.714 16647586.592 91699353.57 142753939.11 43789538.424 -6306947.4213 145065377.91 92795366.404 12792753.899 
-3926087.9999 -38899447.083 -75618357 -26972528.965 46058745.898 17431822.076 102224640.82 140283460.83 43637386.594 
-10104169.38 155989308.26 88420180.518 11503379.136 -5479462.6061 -164901551.76 94152127.038 233745164.81 234551559.63 
192951335.45 230738973.67 203948922.35 233307320.18 257306777.54 208905243.91 249003340.35 207202183.16 8039489.0985 
-1524431.6415 133140154.89 81364345.886 35016790.362 4324533.3077 -2172536.8414 -66248333.498 -39091371.726 -154954.39823 
13981319.194 -119878305.17 -117220023.14 -86413910.811 -101810734.62 103584990.26 102333921.41 90268921.51 85282988.611 
-20391737.046 -77049963.788 -92050893.585 -64209100.401 11445402.351 5110580.1377 -12328306.082 -19637257.589 5383078.1325 
9123370.4076 18556576.81 14690238.666 12744208.019 17983314.727 -6787053.6218 2668776.8753 7019524.4135 3430376.1511 
11197513.887 2572352.236 -3295167.7271 -4529974.3897 -2569079.0208 -6042110.0741 53825368.57 21184135.55 14551190.095 
22615482.181 3514856.2634 68584603.836 50220888.687 10262851.934 49926457.694 -900090.16182 8906090.8481 -612749.14105 
-617713.45241 2579838.7339 -4733676.8741 -45211395.593 -49932772.595 20698106.766 19642884.89 -1156542.5214 -1267394.0956 
-2986727.1312 -2010957.0552 -625329.47016 -1480103.1079 -1122134.5958 -648673.90173 -2610881.926 3047228.2245 -627050.8283 
-1249677.398 2686375.1313 14931933.045 -3470492.5075 -3631560.466 -2310619.6363 -5782728.7094 14783505.281 43339401.993 
36928374.683 45038520.093 9558774.3167 -22831311.697 -283453.94684 -26734374.39 11831054.903 10290506.335 12069222.539 
-9046635.1384 -14865081.029 -13014215.065 11866.72475 1341053.028 6298857.3245 -443173.81775 -2433911.6811 -416850.35187 
-1281514.0558 -5269100.9069 3366386.2878 -386406.23535 1094546.7374 31647690.543 33367455.451 -4453864.1202 -5418998.7888 
-95458.015164 97838.307116 1113778.3306 1783432.5568 97585.225685 1376679.1045 -7414991.3708 -1927125.1213 8953161.9538 
1335340.0021 4158370.9028 6874058.1025 4699801.0147 1111864.9973 1721675.6517 -828088.43379 3845381.744 698059.23442 
-3258890.1647 -2009204.7037 924732.56147 -3345844.0959 2531330.5042 -1633014.8858 -9602691.2421 -1071346.7976 -1587525.6479 
-2907777.4619 -1465024.6632 -1899420.9699 -3403823.1877 -7239534.0863 -774579.43482 54566.71357 -2236324.0521 34082377.326 
47447431.688 13933381.108 41579433.571 -54202578.511 -3415138.6726 115394518.97 32685005.753 3650044.7999 47076926.244 
46834771.11 -20392523.161 31463516.875 82574366.716 -53615176.898 29873134.188 114658693.71 102835539 155457334.37 
-102386639.62 -51404208.97 -40787217.412 -65946409.321 -34585893.96 -64689186.387 -18906497.204 -5688722.5261 -28095210.7 
5723249.9971 3659063.4208 6570480.6086 7497257.1831 8609623.1419 19596495.511 17694881.85 18393741.184 22295214.499 
34831715.645 29372798.237 37497982.399 47553514.192 30053306.942 51287876.781 40141239.018 37709467.028 -25925279.688 
115627493.95 117945963.79 4293376.2552 10221305.759 144398290.57 113694497.08 35817582.174 22790159.989 61166890.03 
19826319.948 -6605990.7425 19342795.197 29542064.115 34519051.052 41319024.34 36421957.271 21814427.501 27370215.636 
31903221.731 25955547.34 44001225.19 79189217.007 19864426.464 36499004.852 45060921.851 45988027.799 31591152.694 
50574931.462 18353310.475 42062412.199 -59706231.581 -11714010.967 125615703.77 30769150.202 2203555.3219 45271881.524 
51559412.167 -12284804.883 34721728.226 73690848.502 -63335322.419 36416712.244 142857223.28 137431374.09 165311608.56 
-45553883.009 -91267175.819 -57091752.156 -35034473.931 -66916809.719 -68642985.852 -4756180.8518 -18112256.311 -26828440.981 
3373158.4632 4498161.7474 10111010.302 5733262.2344 2761287.5297 16499604.688 19681506.657 17398559.365 36169300.056 
26307239.705 40409414.728 30510689.776 47335811.062 48326346.901 26334829.506 41767406.714 36806028.717 138253745.83 
-26308050.99 108776093.66 -1938164.4875 -11037536.248 112364071.26 137479159.81 35159161.2 25600975.903 78608871.71 
-2134745.1517 23383628.081 22344840.403 33924328.719 36261761.722 41769226.688 26987088.778 22766173.726 40982389.758 
30241303.372 59428977.328 71519584.733 24227917.278 17820252.945 38802740.458 41626449.37 53277535.459 1438918.5147 
-35086176.79 18410308.911 -149238301.35 -6228793.68 -69941398.53 -164122168.44 -222417288.55 -841079.33895 -696940.65571 
5259847.8954 5250070.4494 -531374.81418 -606413.19076 -15335461.126 -15095679.487 -90494553.308 -49970810.109 -32788410.64 
-51061785.111 -179858750.15 -150240915.98 -116068855.98 -92891181.032 -150821911.18 -216434306.08 -217248512.52 -205035161.66 
-179774331.88 -221081214.65 -118218198.05 -174503095.35 -199101995.43 -177666957.96 -216522005.35 -12145045.12 -51970979.379 
-86922065.899 -57546233.341 -116275241.65 16656022.649 16630650.061 5723704.5107 -12296061.493 15157482.283 10146501.387 
15760538.053 -180955385.33 -17115378.869 4658348.3742 12155562.132 10613919.518 -37521395.754 -145198175.52 -11460013.57 
-94609615.277 -288860396.72 9942592.9174 85184002.723 37654893.754 76944307.016 -4578584.5269 4433896.7617 54795433.353 
59045289.692 -182023518.7 -271530530.83 -120571166.37 10087464.59 4029855.3111 5545908.8534 7788922.0448 4142080.7893 
279819.46104 14694173.572 -14144319.969 -566336.28606 -11430523.51 -35547236.339 -883994.62028 -29910163.757 -65943974.675 
-18574387.328 45178984.972 32988844.389 -22537287.939 -13643518.094 58773985.483 -6193586.6707 -9349116.6767 62076432.995 
-15354643.511 81556054.252 91730485.401 85184056.808 82979912.405 53859183.343 78956328.542 -184647874.44 -284075261.64 
-246288261.34 -180651435.16 30302499.38 59738752.689 50546749.403 31812665.642 21334780.837 -27774493.332 -98420677.87 
-64329686.194 -186287007.49 -81535563.928 -73791444.374 -119005913.85 -22867996.9 -133670234.11 -231966025.88 11405659.999 
48405679.344 -178612088.74 -23876183.893 13506503.218 18821215.89 8649066.6407 -15913112.185 -142479118 -6921400.6923 
-107600372.77 -284249794.64 12456671.969 84752182.37 38026021.225 73602920.801 -4403074.654 4727677.4577 21417786.636 
50262101.358 -190651655.94 -120198852.79 -227226558.26 24278116.079 3722611.2242 3907531.9684 8535755.97 1043738.3684 
5131728.474 12243349.856 -6933989.9798 -7912665.0525 -38429175.768 -8940864.3938 2168649.8604 -71287259.954 -32016273.001 
-30450138.807 38911874.445 42906637.411 -37172355.029 -5281799.6199 50856201.862 -9811837.2288 735486.67371 63788367.601 
-28261964.045 84576709.54 84839715.171 93412370.542 92678103.967 57836932.541 59126841.914 -268201058.97 -247158249.52 
-251970545.16 -150785336.8 29033525.471 49324840.075 62980023.276 32017850.639 21874874.147 -23108632.639 -192366812.6 
-70453936.101 -91446113.462 -62244484.357 -24874871.192 -107909708.6 -65744128.58 -158291222.79 -244823541.77 11712673.816 
58292781.439 -44655372.994 31810224.956 38671154.786 -26004822.013 -103064785.84 98749077.417 -57276715.548 -4365235.1512 
8460286.8041 452514.65247 27307305.056 13971557.218 -12400217.816 -134670315.91 -13479369.715 83245877.536 -53016338.001 
-1777239.0175 -1541309.2704 -159977471.75 -109038995.8 -83897129.94 32163812.716 12301116.035 -23951423.121 -65852046.076 
-18671462.637 101010649.32 70928755.854 127911252.96 -762753.3791 1989868.1322 7930673.5443 -9274895.299 -12604026.023 
-8250269.0378 -6742414.976 -3480266.8197 -20995945.974 3314778.4619 7395937.8009 -1695626.7235 4445813.5265 -10392306.713 
16358028.507 15976699.438 22480889.083 5055971.1138 1638424.5764 23410300.789 200585.99158 -56288341.242 -17118466.596 
-87095649.628 -129425814.94 -76460715.161 5512400.8049 -9129976.0162 -40577351.681 68720684.517 -82723180.265 68363237.385 
112037724.2 89896750.652 25625002.615 45381887.883 59710901.941 -40093583.813 -62753903.748 -71987375.297 -27402405.68 
-82033030.804 -49262707.591 -31949039.273 -32828142.77 -24111542.319 -8501712.4665 41382300.405 62931261.589 69104419.052 
24856259.083 31827037.006 10850215.385 9367231.712 5013213.5406 -44776150.647 36066359.209 38771838.431 -24841168.063 
-98841868.819 100681257.53 -49762951.524 -4788849.7805 9507577.6061 -529985.04638 28879137.55 15272458.346 -12292938.754 
-130677757.86 -12538264.064 83627204.135 -53291797.604 -775089.2199 -1570391.5822 -100456013.09 -117629122.3 -79785637.306 
12298265.163 36029971.009 -53892044.049 -18398391.936 -16323258.364 72025448.193 114693611.54 124235577.03 -1075961.2054 
2948387.301 5642051.8334 -12550363.927 -7002618.5127 -6174045.2188 -3806899.9056 -6331574.4869 -22178012.168 7353026.7108 
3736463.9713 5181701.5247 -1583486.9613 -10314952.687 14028120.014 16554711.836 23693933.591 2684129.2755 3978341.6601 
26102106.805 -1475805.8236 -11438977.566 -58554179.905 -129858346.74 -86641411.613 -82379313.353 3368248.8576 -8887227.4991 
-40705997.521 71403452.233 -107451548.93 107462320.11 66348777.025 94149618.567 24619484.47 45160034.608 61104194.815 
-71068286.2 -59808377.08 -39040440.041 -26613184.599 -53366737.195 -71735832.643 -30901037.708 -32859391.859 -23573555.487 
-7588486.8075 71451936.714 66719699.792 41599681.237 25844190.636 34590185.811 11919830.116 11551130.033 6108537.135 
288930732.68 -208674371.83 -117151811.76 221978450.03 53406722.249 102057404.56 46328491.186 59872914.012 -27371443.942 
18011445.244 256462528.24 155383237.93 -46311798.532 -17332177.376 280347789.8 -24781137.374 22192182.148 81053511.168 
87299218.017 10141906.884 -20580806.946 123942405.44 210710775.83 133344840.16 248522365.7 194161822.26 188204932.39 
-33010323.343 -69010447.66 -13504926.7 -68493790.133 -101813862.84 -31816989.99 -123004099.64 -121393448.73 -72376089.985 
1772742.2503 4373798.9246 -104344016.59 -59627568.006 -36936110.719 -20358044.874 13884134.577 -12805747.809 26358252.052 
36002404.024 11632972.801 13538066.721 21777153.048 16949698.833 249432810.02 244640023.86 276181246.83 231714500.79 
39632524.997 69556153.265 93683294.075 43349183.232 58981662.019 121166021.87 105053789.25 61549565.059 149859610.25 
11292716.817 14748242.849 31637880.921 66546725.403 146611977.72 171728676.56 19490910.569 75263402.687 138081956.38 
114959781.48 34404614.751 210514458.64 71338039.317 80753988.145 91805460.329 44982953.996 59050197.331 -29536598.815 
17700935.098 229628622.74 150943481.96 -46956580.438 -24811205.297 288417174.39 -30042329.97 21103174.567 85458065.925 
85766170.752 8333177.0428 -22565032.16 213333891.04 123123507.98 121378338.69 191922890.74 238764199.64 182855550.71 
-70402519.221 -33904166.458 -15845932.206 -108973977.57 -70597597.401 -31388896.081 -122690468.69 -127837836.45 -558630.65224 
-75313294.734 -1965931.7014 -61054963.835 -108244340.79 -40799276.827 12915602.273 -25270583.328 22985999.877 -15245833.314 
35086145.315 13117104.21 10167037.556 19365419.981 16556945.77 258832118.35 260258567.35 264967194.4 220517283.27 
36191227.939 94150004.974 67267993.637 40589652.727 54155492.905 111336827.7 59940336.052 109643841.56 147208633.34 
7179589.3967 12682651.509 28533343.72 168626459.4 130715043.75 64357728.351 17244936.087 107812871.69 132624034.72 
69048588.265 31000236.123 212833419.28 71716482.793 77644794.368 -181080846.83 -302719090.18 -236318476.08 -267203168.13 
-227302467.39 -74335242.285 -12701329.864 -88640799.481 -89345992.82 -50522142.514 -53527491.127 -9297085.1088 -8375809.1667 
-23339944.622 -18385511.98 -29688125.501 7351250.871 82976228.185 3136632.0226 -133306.77045 17878573.493 95382175.285 
112235806.36 66984121.078 23603559.178 72856579.902 41320652.992 196905542.5 238294265.19 180981905.62 225567868.05 
236858886.4 -76313717.984 -52638678.888 14456602.487 374341.82221 -39790118.811 -117308485.85 -30338499.952 1665521.4519 
21797357.129 5180232.9711 -30721659.32 -12718554.551 -95098924.782 -152763896.62 -132645323.12 27720370.6 -50453884.785 
-15481225.627 -76123324.414 19413224.442 75749423.6 58836433.882 65381778.952 -30700283.96 85919040.851 60754053.236 
947304.15476 -305849.53765 -4777509.9792 -2007309.7202 5802967.1989 5546789.5172 14590808.47 16104707.442 -92593452.797 
-90749556.706 -28744858.89 -1166269.3889 -61397224.364 5271436.2619 -4318051.6719 82680.51329 5755226.9927 10433694.879 
33150343.939 31071484.593 29349807.303 47552757.482 43094531.45 9144868.2749 1949962.9958 -15844211.002 -13837658.621 
-14266485.772 64556912.623 41223560.463 87204219.942 87098146.461 80918282.183 -5606727.4911 4064642.1446 -7448430.6131 
33801799.723 20707590.004 15463430.465 7798041.8017 27152004.955 15012743.083 7584217.518 65597478.694 82777073.373 
60298721.117 -52451287.904 -40215737.136 -8633230.6671 -14458256.691 38548647.291 -4203430.4568 -10490588.132 -60367796.301 
-72167490.067 4168476.4205 31577137.408 -14256062.844 -15315968.048 -21781749.618 -81104.08884 15790440.008 45695699.178 
5570185.6042 33779146.656 32304566.076 49108492.434 59439685.453 2609879.4235 -11613859.449 -7211994.8592 66321745.752 
56113247.175 86196421.391 82835585.726 67533331.927 106248348.22 26442161.218 102974028 69927254.075 33040831.294 
50903964.319 39052412.672 20220852.063 -11602725.337 -11533193.096 -49803533.288 -101676535.28 18963513.776 71247194.101 
101736872.46 102566497.46 28612059.802 9460886.5085 14016668.117 35568884.727 17930915.287 21784587.003 42692403.563 
-58745205.568 2336091.6147 -23325520.351 92691108.842 6382598.6471 7720013.1769 -4792971.2049 -11856870.585 -4904231.82 
-3025563.4287 -21792972.061 26440126.66 8021890.5967 17192499.525 -61409972.782 60223592.191 29566260.622 83881840.153 
76860406.621 94271183.903 137682486.69 118761921.22 91764888.592 57499034.879 5022408.9324 -30091059.03 -26591569.392 
5431417.9546 -4308598.5 -52722580.722 4900914.5395 5040115.1253 -49906331.642 49352328.539 -3637939.4585 46540903.597 
16033178.681 17592832.541 -10219163.352 -9086064.7089 123332085.4 116528090.37 138159556.6 147327428.11 7362423.4563 
15634685.511 -31745747.247 -28296368.968 36795873.798 2664470.58 39692068.29 -236695434.37 -177408048.83 -280041338.14 
-225883811.72 -172147473.97 211101802.48 280759272.24 291423972.26 117907484.78 215654930.57 1160351.0939 672852.98829 
-4298373.7654 16017858.396 20228809.936 30677685.126 41179919.91 -23885416.306 -13781195.879 105471282.46 86622291.049 
110447462.41 31619372.305 41551962.77 43571483.265 24811173.647 8729264.8347 25333171.817 3430247.7738 -9719507.7035 
376505.7394 98295006.388 31644009.42 39112226.432 38096986.291 -10140246.584 -2874359.6282 13335662.966 15819477.692 
15112304.25 10596609.756 -52328915.361 -47435243.993 -67686687.32 4586675.5051 3831277.7152 3027568.5444 -47261507.37 
-52518415.654 -40634996.173 122320286.92 88684626.068 -7246023.0586 37952913.537 18352231.002 -6066406.5434 -3770546.7419 
983607.28441 4014087.5415 -1104959.2494 -222967.9028 -55459340.964 -60851617.063 -76592288.815 3958265.6004 -2470342.4372 
-47625767.094 19852610.909 -173876.90871 31590695.728 31856866.225 39322042.987 -38198424.117 -73987667.22 -8920445.135 
-52669498.358 -148729300.61 -98826854.226 19682654.267 4710065.7075 12662683.931 27409248.416 -21159335.048 31916170.962 
71962158.038 4145541.5118 -35047780.176 3746960.21 -70073475.952 48001128.527 -3837314.3839 13345224.988 29138185.017 
9543688.2488 -59993183.85 54206246.082 30104788.208 118181719.06 70017763.746 17801514.941 -125455084.07 -9481462.5274 
-64678935.076 3332747.4437 -63093964.801 4824228.5067 17624876.275 17645918.463 -103463945.22 -121794853.18 -39280089.885 
-39120691.59 -28449599.154 -11122639.958 47088592.57 42879166.483 -38006726.37 -43488524.717 -69634995.769 106086411.39 
136409163.65 15845461.725 63301621.976 41381154.395 -112295032.45 109114321.3 139188227.72 149451548.04 52599607.121 
68148551.722 123180037.56 -129712334.75 -20282858.823 -22104896.138 -69501506.769 -135170140.07 27017601.442 28559475.591 
-9927763.8906 183286300.31 240109755.94 132273040.94 66793749.264 -80941582.171 -89554123.91 -65517314.638 -64237994.904 
6009010.0687 6629759.8136 11679392.97 -7600775.8669 15112137.282 17531829.633 -10604491.224 -12834653.251 -131050083.73 
-129263246.52 -10660092.807 362373.91029 -6719473.7762 -22329813.994 -18740420.839 54783245.43 65360305.907 122009465.44 
110376574.4 62743604.458 -41084651.778 16471762.528 146665558.07 176261970.08 175695553.63 70445460.605 -124473298.65 
-106003757.42 188299074.07 8034915.7272 9628409.4855 33296415.71 -81405428.153 28996803.55 -189710805.63 -95627687.181 
31441053.181 36996734.767 92423042.1 35544241.023 24652884.734 -72239600.325 -98466909.713 -26753834.888 24902021.604 
256459096.28 -50459767.916 255600.3022 65156401.357 157863272.63 16477081.29 124324335.48 -136665096.22 3232558.5576 
138626308.41 -219414737.87 -42892039.502 249290354.82 34618532.167 4352269.6859 -5733789.3493 9639809.7127 253007079.62 
-22972722.984 -296753869.95 -19114346.277 87007614.332 -196760170.35 5566052.5962 -878035.58395 253136.19502 -214466676.9 
-68635534.226 -21455939.464 41280874.424 80399814.917 46195511.757 47548308.66 11904271.682 41987092.195 73850006.955 
199077652.31 10334621.643 -71499746.73 34702627.142 -18845348.348 37628895.862 10264262.509 -87426012.15 
Stress%20xy%20component 1 1484 double
-66576304.109 -69239602.302 -58566369.826 -56671138.246 -2702221.8829 -2760269.9505 -4255109.2414 -4120003.944 -146682264.49 
-128437628.77 -148262152.74 -121013218.53 99110738.781 58976716.867 -13595531.109 -128113399 -11670820.046 -128757301.72 
-112610167.52 -97943464.281 -39229538.612 -74079704.782 -106968847.21 -117601703.34 -89972968.609 -49568894.538 -22294234.721 
-49522615.633 -47135741.73 -89198226.396 -114536872.94 -106837369.77 -68019729.281 -30670058.914 -34174937.714 -40335973.391 
-76409437.136 -105978718.98 -119255925.4 -91610229.038 -46258829.426 -26893597.095 -54910100.664 -49727306.75 -90648907.829 
-114708671.13 -107712396.05 -67354067.439 -33819533.007 -33462118.006 -1847579.2758 1098450.035 9021418.0256 12061398.773 
39524261.4 -83749660.862 28091896.224 14394553.857 -356196.48104 4935221.2075 11675117.669 16027340.322 27155688.419 
-11259149.806 12296055.965 -1765051.7242 698887.85388 6669700.8424 11901144.868 12745824.313 -72466064.296 13195100.913 
10797805.434 -1111576.9295 3868083.7085 8830129.2636 7479482.9331 24992454.316 -27019839.484 12269276.914 -5784719.6558 
-2831949.0234 12366016.092 6620274.8161 -515836.41278 -10003801.454 -7517019.7309 3321030.7027 4304546.4563 -5873197.5911 
3333782.1379 4981925.4113 -5763088.9963 -10945271.686 -4019601.6263 4349971.4112 270840.29014 4819629.4262 5884741.1447 
-335741.94163 -11235235.225 -8706491.4435 4770210.585 5126026.6994 -7570403.056 2524699.8661 3902731.7776 -5135105.3356 
-10928835.876 -2037652.9874 4262316.3121 1637467.5445 -11463357.965 -132339810.36 -114183229.44 -35038429.886 -75448492.128 
-110395456.38 -131705229.23 -60765790.33 -53815311.632 -113801579.48 -34786685.234 -100913962.45 -50957893.264 -23430243.297 
-30041461.135 -100969199.41 -32696053.494 -27400098.136 -35660018.585 -21871784.296 -130268195.74 -104603963.66 -37655526.033 
-76534419.221 -107274084.07 -127213289.32 -93427196.86 -43179495.197 -100803391.77 -50641059.384 -111997496.23 -59903880.988 
-25573707.661 -24881517.697 -100356536.1 -35127226.469 -27083385.597 -34378600.497 3702027.1287 5668019.2886 8053859.2986 
-4832552.4135 -12750278.406 -2286216.2001 2049048.3877 807987.004 4251509.6395 5640461.2513 2167967.6332 -8517746.7536 
-8205495.5942 303824.45138 -345037.90794 3786753.5295 8173732.2486 7856879.2206 -4159077.6889 -16274918.756 -3451296.4736 
1692134.4244 129405.18419 5700297.5042 7909436.0618 581991.70757 -10419570.735 -9473887.1002 -523365.36789 -39556.458391 
13736031.148 23861871.425 18203788.243 4771253.609 20181988.257 22854864.749 31586818.789 -70565632.888 89097816.53 
12176272.905 37432568.166 -76960753.863 13678843.155 26360864.228 15749724.617 4947271.1209 19473912.695 21354547.78 
21535447.679 -20039551.958 54292238.51 6930275.003 24632760.458 -111276486.98 -85351913.366 -110694859.3 -52843499.79 
-58781536.954 -29305067.158 -97546264.664 -36123279.114 25593094.301 25298173.895 -79706096.972 -2245293.9171 26600561.193 
9677024.5937 -85733654.262 -108403186.82 -55124938.011 -65707769.515 -31113075.79 -103947244.7 -30628954.224 27781284.425 
27628248.491 -78389426.049 340605.29226 28399413.797 10440153.417 -119431896.31 -141090966.6 -66838405.123 69569555.558 
-96877133.671 -7392673.0923 106524005 -68166830.537 91058608.846 -97940463.616 -8004538.988 105002465.41 82260731.624 
-7854098.9227 -130851579.37 -48738605.736 -34570296.666 -71500799.396 -107309659.84 -74395642.601 -53633046.924 -96028213.887 
-115235572.87 -75523101.615 -77521348.145 -57189218.513 -61088923.325 -55965482.848 -56762431.745 -31423748.75 -31426531.27 
-60543934.658 -39222293.943 -41120703.814 -47747999.419 -101408192.88 -85237077.229 -76504571.899 -60700976.649 -86737538.935 
-116865489.93 -112787853.6 -107029272.96 -101688464 -112480635.6 -100592851.5 -112849440 -117847146.9 -113767659.62 
-117148497.92 -60387764.225 -81103109.086 -90778575.158 -81747673.994 -100802939.88 -27268586.649 -38876550.473 -49325058.6 
-39349233.512 -58679158.58 -26682721.021 -31358871.611 -11471022.108 -37896443.282 -982717.54667 45286653.038 -694028.28026 
2005380.2287 11864586.913 -13640432.396 -38875546 -37381943.457 2124134.9968 -1867857.2152 -1483788.4979 -1598925.4237 
562480.39935 49045.882968 5540535.0189 734847.28664 768831.48541 583997.2326 13959418.179 10615547.691 6313396.4395 
4272452.2243 8216793.0425 2569741.906 -3782183.8999 9489231.6295 11040316.786 -1212722.9577 20413540.344 48344808.083 
18229114.717 37442334.853 -5760526.3712 32339234.278 -75609689.966 -67958933.735 -61697383.881 25296899.942 3949414.4955 
7496879.105 23723030.412 25539979.674 5098300.5244 7973229.3804 3348314.0291 1198578.2262 2216530.1587 3036294.2435 
-6224045.4526 -2430357.9727 6866117.0375 -1639966.738 -3512199.6891 -30598098.186 -30075762.534 9673619.446 5209999.4696 
-1042303.0072 -1262972.8713 2426000.5285 3423396.2119 -910755.65373 1806558.8054 8735769.9236 334169.47522 6671914.4735 
3333778.6951 4984360.5873 7396357.6153 1796112.394 -1607319.0856 -6386415.3398 304207.66585 3771748.1519 -1729126.5674 
-9066792.7009 -7713094.6451 -8979289.3907 -8030905.9198 -5828889.4003 -2675463.8624 3666027.7132 -4871318.0199 -1602755.1791 
-7455961.2445 2788925.405 4263056.7546 3563728.9503 2169350.3721 2345469.8333 3607158.2357 3871784.9623 -143980056.27 
-97781639.137 -114721173.75 -45955073.016 -95703651.947 -108526162.36 -92586226.084 -114888847.56 -124344595.3 -108300501.71 
-64419494.124 -108568010.88 -59784355.456 -95078824.138 -31942674.94 -30783660.051 -76709830.263 -116259654.93 -97199428.37 
-122583314.34 -94204227.471 -80633168.182 -66201155.876 -79920721.876 -60879670.646 -96179247.565 -106944222.37 -98189701.739 
-115301319.66 -120833498.02 -111236067.13 -120126048.58 -110549990.42 -116552039.17 -102177656.6 -123280130.22 -77577064.256 
-59511334.213 -93222766.035 -106966920.21 -78141840.678 -45438300.377 -34887703.226 -51429080.399 -38470343.2 -73878530.261 
-79510842.95 -86546786.342 -110077572.78 -123588868.15 -98912349.416 -114428834.64 -122360814.8 -105551416.74 -91642509.074 
-41313284.691 -50568873.421 -82812038.993 -36553637.523 -46832781.482 -65076985.433 -120118831.11 -123083582.73 -106724708.18 
-128095052.37 -126957940.53 -114555988.11 -130711514.76 -133984013.93 -135161681.92 -80275187.105 -108004697.73 -140245229.64 
-96883718.129 -113161872.15 -42069541.5 -87996563.682 -107140508.82 -100173042.66 -116437549.91 -123439052.5 -102162502.58 
-66409052.861 -107034634.07 -59056227.777 -86721838.399 -34281614.039 -31263375.718 -121595950.4 -107466827.95 -102662111.06 
-85782316.402 -114459065.56 -86650880.631 -77887818.867 -61105491.149 -60144785.901 -104157700.29 -94494266.835 -97859466.775 
-120579078.57 -114703514.11 -119923362.42 -110716626.1 -109393762.83 -103104190.19 -117261377.81 -122697278.95 -58713464.633 
-79098371.787 -106878095.13 -92942164.543 -78217173.827 -32836121.377 -42118992.274 -51675575.538 -37660037.12 -96214237.642 
-59669536.056 -106187807.13 -105517812.32 -110902949.07 -111164310.68 -97142925.13 -126292813.99 -105836620.8 -81601834.135 
-50250452.169 -42823712.271 -87158634.843 -37702835.865 -46414142.34 -65730730.529 -110443945.19 -124801483.39 -118925938.79 
-130592335.34 -131149317.61 -109080313.94 -124688618.24 -135035277.21 -132009426.82 -81016856.74 -105008636.14 429854.55269 
-6755239.9274 358332.50154 -5988691.6268 530242.39422 2816477.13 9826195.6245 321506.88874 -846532.00161 -919725.77787 
909556.1323 1085377.7785 -1471599.349 -1593347.0984 2513559.8164 2045541.7606 3804585.2482 2512858.6944 3036624.3078 
2839430.8015 8583337.216 6728766.2634 5510974.7442 4788266.752 8964829.6615 -2734845.7493 5131451.4207 7887342.3844 
8388258.7651 4539552.126 -8233324.0106 -5050226.9641 -3220354.2774 -4558115.878 -3405969.2592 -3900014.0904 -10474881.027 
-12804129.892 -12487822.316 -9857828.0778 1593006.735 -1190936.8516 -2321936.295 -5052813.9403 -2187760.662 1325459.358 
1513857.5782 -106125445.82 85940776.781 -139340124.69 -4122826.7228 34855101.522 -151273127.58 71732150.726 35153733.734 
-160051783.55 -30373519.327 68428594.175 -144743320.9 73307824.47 -125463807.07 2231277.9767 9063466.1336 -128181958.66 
-148953405.42 -52481102.001 -23911424.901 64969613.822 58014767.782 15719393.715 20950959.289 25069892.213 38478053.189 
40226547.681 51762127.469 19075533.624 28871392.907 55627805.363 65088243.72 75476946.356 -51547931.084 -112483432.43 
-54939724.119 -129471362.39 -72565750.869 -141307942.06 -138479669.31 -132515696.25 14656668.257 8730442.3389 -98616443.073 
2142088.4694 -88923280.85 -120569101.27 -118369613.17 -127989429.5 -127381515.62 -131704369.58 35860778.177 -31032706.449 
27670963.275 -118864184.08 34727321.748 47547815.795 50618343.519 50703222.05 75121455.773 78998290.726 8383825.7021 
85516247.561 -8598509.3354 -28160035.51 -130503376.13 -130841484.89 -137127007.53 -139325687.21 -74802199.098 76875728.52 
-128165182.22 -108318098.94 93612673.621 -142014405.37 8685041.8794 33853123.017 -157495186.58 59077941.696 44601803.892 
-148162644.89 -36007133.497 66341019.369 -149499412.28 70690397.843 -125856382.32 1284379.7623 9209219.8202 -162263252.53 
-126496662.42 -93289975.536 39894896.722 -2313327.0869 60687073.824 20641974.777 15733399.363 23883715.416 39045180.902 
37443043.041 51129643.541 20595932.301 25061459.538 69033447.946 56198680.956 76934327.653 -108825171.34 -53322305.976 
-48871402.705 -86450375.045 -130796294.4 -140028010.73 -143939343.88 -132797800.49 18631253.842 14201840.811 -90263476.184 
13487019.124 -80962042.793 -115074977.15 -120841729.43 -124838914.73 -127133998.65 -133318862.65 -6631072.76 31557397.02 
10100518.272 -124803903.74 35456145.183 50514801.913 44560810.459 48809351.266 75704576.087 77654888.051 -13322017.422 
84580711.991 4210678.2836 -22671571.681 -138043004.75 -125270679.68 -128914775.72 -149219627.35 -83464608.907 76548182.766 
-127495450.13 -93310384.237 -106652393.91 -38540409.461 -30966238.287 -78325784.625 -80427342.202 -102928915.86 -97598257.045 
15149633.991 3444704.6151 -98440209.359 -71926947.363 -54835597.997 -106027443.92 -115304491.52 -32580754.184 -31086993.721 
-3941477.8024 14502029.414 -118949419.52 -74815977.859 -96822179.787 -69974048.287 -57418433.998 -66362914.673 -91482738.736 
-100612858.35 -92550424.904 -72681125.319 -58720977.278 4664614.19 4426301.4043 -12283432.232 -9803966.1333 -18268616.847 
-9968397.1768 -26720749.074 -32217084.681 -44201326.497 -42140926.724 -38917813.816 -56469737.483 -87295534.028 -77160078.768 
-27713905.139 -15702315.176 -56834652.506 7245246.7036 10526872.79 -9389993.8271 22515216.868 -37433389.779 -23693221.111 
-57940758.575 -91734944.293 -52588010.715 -9452443.3555 -20911221.908 -29910664.895 -91579996.942 -104884128.91 -3597438.1476 
-33586171.408 -56355401.293 19932963.236 -6682232.9082 -36162217.769 -60036995.026 -54092131.024 -86773792.046 -76661399.699 
-93551760.006 -100925814.62 -107374105.01 -106293045.63 -94760624.098 -106312056.96 -74236862.023 -91821497.538 -60899775.104 
-91653534.972 -105783243.26 -100647289.44 -112099973.87 -108780763.82 -94238065.432 -106248996.2 -38989951.279 -26818728.657 
-78640056.173 -78509730.726 -100745565.72 -95186835.028 16819433.629 889899.10271 -96553818.05 -71228360.57 -56250111.448 
-105216036.31 -112496312.77 -30874040.716 -30745795.07 -4335302.7054 15912092.688 -76451245.621 -114425387.22 -98406327.975 
-56307464.634 -73952793.686 -88979888.999 -60587062.952 -99433265.604 -72373275.275 -94951238.583 -55267495.207 2594911.3233 
127492.70229 -9413336.0275 -16820743.983 -8855498.8101 -9752685.963 -33011838.177 -27402214.881 -43429633.868 -38815657.219 
-41971686.829 -84928555.312 -55970839.151 -75158630.154 -15637183.077 -27654077.922 -57248983.656 11459268.717 9674531.2358 
-8943778.2426 23126140.928 -24915024.161 -36412615.388 -90519211.229 -62773234.728 -55274960.423 -11207845.509 -22342356.641 
-30237985.004 -90631567.22 -104513738.15 -29387253.568 -1350462.0627 -56386134.357 21738766.593 -5614984.6497 -34823619.649 
-85424529.973 -54512082.096 -60719901.541 -76568008.387 -103840377.91 -90646669.238 -104739872.37 -108621063.41 -94757097.476 
-105329671.31 -59304512.598 -93085769.664 -72525962.107 -91603939.157 -105396442.15 -99643154.64 -111486163.52 -106253995.59 
-102125471.07 -103972002.54 -45939499.676 -73500253.803 -21912026.009 -50498751.151 31506759.551 -65998669.361 34607368.968 
526605.90659 -42499294.442 -29554378.988 -9511601.7596 -52103020.646 -9929563.4205 42319493.152 -32140540.326 23744860.132 
-27798948.865 6847358.7573 15945714.169 36627951.043 26103443.566 -24139331.937 -64940714.117 -92714699.731 -35210001.52 
18227662.047 19692851.545 31026016.839 24841121.503 22564381.789 38923741.382 1436211.5416 -9453678.5628 21638908.375 
13638254.571 36455594.181 -27123209.124 -31049557.03 -33580214.702 -24363698.601 -17153689.273 -42880857.322 -60085509.344 
-47367987.446 -1657852.5983 2111251.9912 -15447385.372 8364022.6315 32118296.493 -35068078.291 -27026552.44 -13949722.484 
9095185.0261 -2418028.4892 -6288349.4142 -6374092.895 -33647034.423 -31400945.147 -3733956.1998 25988009.632 -730983.19207 
34354313.693 34628383.334 37373909.71 -944854.33342 2402766.5857 -38757109.508 -26502783.821 -60543446.363 -38366544.395 
-52446153.178 -52809757.61 -37608743.952 24963759.294 -43697126.42 -43223179.408 34237687.566 -63982548.022 36032866.679 
-248431.15254 -50431277.919 -35096848.904 -4919533.679 -50651682.664 2370877.2105 42395201.551 -32591915.278 29000109.18 
-29294955.236 6546493.7138 16915842.021 36311712.978 20124354.59 -22369821.623 -97720284.354 -71143807.156 -33352487 
20950207.888 18225508.715 32846537.695 23006138.502 26344433.853 40592648.339 -7604404.3942 2958313.3479 15377815.231 
22582281.817 38681020.058 -31589353.461 -27106731.577 -32490259.463 -17021847.969 -25350374.804 -59107344.049 -43651048.666 
-46749416.49 2091139.6217 -1996457.5454 -16092674.644 6492003.3596 -29516881.378 46741334.606 -33174015.353 -9672964.1301 
9647041.0457 -8633309.866 -3862623.1506 -6081442.4609 -34647277.489 -35978437.475 29328937.42 -1298239.5521 3026685.8857 
36204957.765 36173177.585 39338431.612 -37033336.44 6866591.4905 -3086257.9253 -23117756.36 -52690143.061 -38424458.152 
-60836524.06 -51093937.186 -28232671.609 30273112.544 -44352199.747 -55484384.52 91412169.516 -8577052.9051 -48651150.332 
5490559.78 -109018729.28 -36325700.213 -118311355.4 -118073205.93 -99705219.92 -100357994.4 -19251034.375 -20677941.269 
-65152212.963 -65702521.423 -87714962.983 -32416047.622 -104042487.79 -14543113.897 -15528190.254 -42660379.316 -114113240.91 
-119224953.95 -84196234.717 -49246558.211 -85882146.59 -65955605.299 116853771.58 75880355.326 -102724609 -66879401.286 
-3665522.8354 -93924209.922 -77768304.751 -57549411.787 -59757921.094 -73386556.617 -109115670.66 -69461277.265 -60533020.602 
-63248270.18 -106123735.26 -103972943.49 -112235663.57 -109297279.31 -116024652.77 -105040496.13 -96537029.475 -99643023.296 
-94815708.183 -99384898.557 -62324205.107 -76107512.247 -66483226.797 -90793032.161 -103374729.1 -84696344.794 -66277474.11 
-52473690.541 -52969298.041 -95068296.199 -55554014.212 -39396081.474 -84521126.276 -14392194.161 -20290741.415 24563962.427 
24378688.812 41481753.174 36385111.1 23357479.714 38102467.246 51780766.453 74988438.371 38016522.12 66047418.879 
-82778844.895 -68890289.291 -67591454.855 -65010785.915 -78058522.228 -109328544.8 -107269608.72 -98908365.246 -107043626.19 
-101704036.86 -131406993.84 -117665505.11 -97935371.181 -140999629.33 -90130555.083 -19248482.198 -36210447.16 -19085970.527 
-45445854.64 -31774328.798 -20982112.66 -32115317.206 -55593705.845 -70675145.877 -32049317.133 -2382834.684 -31864651.648 
-35377365.575 -31770754.768 -31310440.839 -21678818.939 -24679325.56 -38111982.839 51575262.221 53262006.844 24195141.531 
21383946.523 -110557112.8 -91841198.521 -135319975.18 -42578644.399 87023354.292 -106776541.69 -114023794.03 32075985.997 
-137419653.74 -123421329.9 -83393072.449 -97401625.055 -64302051.568 -36308344.593 -10516091.664 -7525249.4881 -1712904.3466 
-32969143.174 -27752848.671 -124517409.58 -126719436.6 -119342184.22 -105515820.86 -112904496.8 -86098559.651 49272322.541 
49376551.667 70753648.079 74384061.786 -13524129.82 -18273237.945 -101984640.41 -85913641.999 7249983.9398 -91275193.973 
-130820764.6 -87482040.199 34939021.634 34198792.523 49145776.826 9250751.3774 382478.50319 -14925357.323 -6734855.2364 
-92408945.637 -114879134.91 -99107892.945 -56833507.439 -38785812.021 -37442912.663 -29259277.999 -54998700.226 -28835077.286 
-32817576.696 11209997.762 -74273957.945 24130327.003 7831854.0124 -63027281.765 26692123.449 37782497.865 25422519.918 
22353275.636 -6090532.7449 -93407868.244 -112284475.22 -118812766.98 46555498.443 6152057.0499 -12501025.315 -15107702.483 
5952238.491 13055862.058 -54684005.296 6362795.2471 6894260.0238 -49616509.652 -41314500.98 12444844.78 -41850679.989 
-12477032.587 -10707691.471 13535651.87 12694981.2 -73029128.923 -74069413.435 -33202365.642 -82285815.737 34544194.809 
34501468.058 38466429.448 34772795.194 -130483780.24 -104695913.54 -103331900.09 6663780.2789 -14176138.22 -32866019.565 
-80719770.078 -115012317.55 -31356353.032 -3183443.2718 -27356701.603 -86604133.964 -217566.41515 278827.60718 -43228595.909 
1441457.6922 -29820506.68 -42225532.4 -60092390.065 -65490206.073 -28513856.54 30723811.534 -30580983.213 -1223159.6693 
-3364609.3315 -37854178.027 -52445160.395 -43724281.697 19792883.721 15684994.953 -8180217.6359 -11123117.429 -9613810.9463 
1992799.6314 -79817057.973 -45023375.138 -38001259.199 -40891834.406 4805405.1681 8567352.7248 17696933.073 354528.67656 
576712.05946 -2005987.712 18366279.827 18369018.825 20135891.988 17673356.545 17488588.612 21445303.834 -68508813.762 
-72577391.126 -82316645.604 -59176188.912 -84900913.367 -103965867.28 -37767664.942 -26845283.305 -35793319.505 -52753995.503 
10951245.852 8599807.3622 1022339.8437 2153649.1936 -38960143.26 -54760156.087 -53625870.223 9759389.8763 -624894.08235 
-7247429.3513 -25016035.563 13166464.015 -128852674.04 -115324275.61 -106434324.63 64360015.594 -27657318.175 37887584.858 
-136214464.73 -134699552.82 -148946521 -133800862.98 -123354344.52 -119022929.49 -58558325.206 -51081286.092 -51014516.072 
-59126054.976 7512020.018 17704580.861 15414473.112 -67052970.151 -37768971.787 5774497.8339 1924231.8139 19252382.799 
13698836.727 -16137883.335 25120088.065 -121676262.06 -129612434.14 -60210749.987 -102134163.92 3234013.4556 18856885.736 
-29596036.159 -113874022.31 -119427656.11 -119879416.09 -123070581.67 -116598247.6 -26363179.508 -9145445.5577 -33288537.16 
-49436183.096 -39026907.133 13706980.256 -7083669.9743 26044730.498 -59143538.693 -92758799.261 -84416438.599 17554481.553 
-107911437.35 -25024088.773 -90955039.538 -72627190.999 -88659045.069 -50122701.394 -38276951.09 -30933283.614 -114297093.68 
-125898376.06 -89685957.756 -126209012.6 -138369400.64 -145829174.75 78440211.858 62888349.073 -120930102.75 -105765225.99 
-104251208.48 -35871094.276 -49160224.94 2633430.8917 -1162230.92 -28284584.831 -27797689.551 -66162289.598 -61803286.976 
-117861576.16 -118265651.28 26846955.397 26114539.328 -110276812.66 -109836674.08 14309868.222 7580053.389 -2300573.0331 
-4580665.832 -75041675.908 2376593.4325 -25984198.776 -44086191.837 73557453.004 -132808238.65 -129787855.67 -20374416.72 
-33414140.053 -88928667.155 -83626412.696 -86924596.335 -5294780.0504 -43576784.97 -114911789.29 -131460697.95 -100824043.09 
-112426586.13 -103142360.46 -149451298.14 -109711107.2 -104944708.6 -130242571.63 -125124724.86 -108113926.59 6810306.9701 
-140453677.06 -118665584.95 -44622110.227 -46660614.11 -27605722.896 -90246100.427 -79094013.935 -75396411.66 -90550305.746 
-32659525.14 -53398556.25 22471661.396 26681073.876 -96405218.891 60896473.028 25151505.277 49892382.193 -8499221.6572 
-93453128.119 -31915221.746 -83969387.385 -69613795.711 -104155693.24 9296878.9346 -2694490.3406 6685802.3638 39483392.222 
-93590624.025 -27607180.282 -65018447.138 -77042571.264 -57585126.004 36807556.549 14709887.125 -320072.87822 38226657.583 
-39110532.577 16664333.348 -32944770.013 -42520414.877 -104017580.99 -128438167.25 73417553.087 -80133494.902 26962275.305 
32718188.91 -99271313.874 25106663.459 -60609574.304 -97738214.349 -70152364.036 -16677412.039 -63591732.609 
Stress%20xz%20component 1 1484 double
-7631332.4587 8890544.0372 -11889739.288 12418577.368 -113045.39553 -30677.93239 -96661.905049 139051.9078 19687041.177 
-5724101.054 -5904455.4807 2824346.9421 7147681.1505 482566.79365 -1429090.1006 -6098526.2096 3421258.8428 5943068.5354 
186074.34335 -9885.3577572 -17196.245314 1436307.3871 -985013.57788 99748.625329 -1087431.379 -86600.507058 879883.35513 
2364536.1502 -9.9504960368e-09 -1.0944660822e-08 1.3110359156e-08 -3.0560190402e-08 -2.5276610609e-08 -8.3551787294e-09 23627.357504 -2847583.8559 
-1040749.1594 550421.47961 396166.35673 416317.37459 -1075431.8725 1425923.3146 -2136297.5934 1.0474388598e-08 -6.0055820408e-08 
-9.2829221797e-09 -3.9361342091e-09 -6.9405915762e-08 1.5075888131e-08 -7.31695559e-08 -88744.92972 -13218.434002 29223.070562 -2738592.7315 
530279.38746 -5153057.0511 4139346.2669 -3135042.5006 174001.9922 440335.56359 -734666.79641 2048397.9834 -1555185.7255 
839598.31397 1142465.4012 7595642.0539 -172150.01896 -447801.62097 1281518.1016 2439245.747 8350616.4707 -7184678.2851 
-1980606.285 143067.40867 -185021.95598 1356956.2548 1412656.1943 -5546514.7304 2587655.0778 -2106999.9174 -3484329.4553 
108845.86305 1064369.5245 -437224.72625 281153.79089 622546.73533 -300692.78947 -448207.67264 -73469.936897 3331499.0254 
1368566.4958 530540.55744 229575.78542 1025912.9134 126645.55099 79389.116018 -121468.17927 586678.42067 -391082.64208 
-200668.65001 -384747.39666 120561.88008 -148551.49382 -140772.52278 -5703780.3559 -32888.312618 -207099.37562 -204409.08122 
-1808853.3652 693707.36635 43616.018997 2313.2756939 4647031.4363 -5941757.6239 -2055118.0045 -4822532.3568 5958693.7061 
-3525736.0325 7907474.073 -18193186.485 -4913133.9575 10330808.323 -15133962.157 -6531665.4454 -273856.02508 -268946.14718 
5113670.0981 4872423.6173 -1191920.8739 -524235.55232 -1991724.2588 -5381205.3525 2170456.0958 3878866.2348 4265302.6033 
-1672449.461 5300134.7181 -8435235.3132 23343299.224 4205216.6196 18616700.135 9222807.9127 10491991.644 2136467.4454 
432468.36026 -2766096.0009 649759.72572 1808161.6076 807947.49285 2064578.9328 -236011.5794 758512.23616 -70148.464865 
-603909.78051 -1029663.2554 -373653.21479 238549.02827 139421.1665 292008.05354 1669908.9291 -283807.85215 -1419800.4629 
-601852.86613 324404.08384 373886.29486 -766298.20351 -497822.47133 -367730.7654 12443.928466 -573072.50698 268285.54739 
93487.549831 -426346.36863 -699238.92036 -2499722.726 -102274.79272 -520474.73754 1596933.3374 -115650.50045 -426611.95698 
145215.95202 18774.768991 -316241.34564 28129.786637 365103.46406 1151960.9514 -5927683.2323 1315442.9114 -15220889.595 
-10155224.054 -15931990.505 9914016.193 73764.424608 -4473.473348 -1053068.0889 -171972.89247 -6472.9518799 1221600.1598 
-7002049.3192 -15290892.028 6174062.7636 -18017875.778 4689858.672 -3925418.9154 10739070.747 2440961.2355 6623987.0017 
-2762602.4878 -6461107.1609 -1266627.3508 2195320.7933 291570.11767 296244.2315 5400271.9312 3377081.3088 -911619.50329 
889879.9651 -12097493.025 457955.56499 114141.67462 2596157.275 9673623.2097 5725705.076 -1092068.0579 -179678.68458 
-92392.107317 294554.97549 114947.43203 -325557.74267 -565394.96441 -7624987.7461 11515420.55 -727032.93609 9943600.0168 
-12532036.77 8819301.4448 13047569.923 445505.43574 -10156822.576 17154457.99 -8831583.0435 -8729031.0872 8292027.6978 
-2640.9694213 1836855.7229 -1945766.6257 650632.5771 -222346.78763 -53836.747174 2188175.59 -881224.80493 -17382.82413 
-386240.20332 -3351281.5364 2755372.0275 4286452.0819 -2133260.9554 7106796.2624 -6438426.5057 11813.678752 -3959699.8274 
-5.6198397188e-09 -2.0803283158e-08 -6082494.97 4290985.8311 -3674517.4286 -2.8068218111e-08 -61647.60897 -612735.54305 438195.56702 
-230070.36828 1.7760089237e-08 409631.21685 3033005.1311 -601549.39548 2.3746980658e-09 525296.05873 36801.976054 -4.1505541787e-09 
-5.9067313319e-09 -899308.79437 -1963440.6496 258207.4431 2546602.6594 -410605.48377 1.2679681255e-08 -175127.14155 -186521.92334 
-1.7732773652e-08 -2.7159332599e-08 -358378.3151 3078622.5375 2253630.3129 3772586.7101 984340.90849 -2757339.1297 8226.8194397 
225964.1326 627081.03591 84022.414037 6163592.3671 -2509078.3549 -3462395.7248 1727804.7205 25594.003233 -72090.712324 
-76754.268853 -121132.75004 337881.01562 99311.618357 -443412.53587 -302332.39021 -806056.60249 277741.2819 -76379.589728 
204462.41268 98570.281299 1178763.0207 -4404392.9219 429635.30908 1447800.7253 4803865.034 -6828426.6468 865252.58394 
1550120.4948 -1059526.5913 -1052051.3288 7211356.0461 -1528427.2155 -1294778.6619 4331376.8052 3730556.2728 3075816.7378 
697743.18827 -4097847.4144 -10281893.536 657056.54195 -7594666.1387 -5462234.2762 -73693.442338 265256.80271 323695.21626 
331158.89264 -1414931.8829 384481.87285 2622.4249881 61591.445854 -7027793.4799 6059102.7634 -415270.52071 -1726000.8168 
74321.599446 -23013.41976 -258654.77802 16798.914069 213451.5568 -527943.82729 2083392.946 1826547.1085 -390721.74509 
-9281.3327682 -2032318.3991 -369099.18847 -826595.92486 44691.249829 57829.670096 254476.63885 1271313.458 435087.63314 
-744477.20091 482290.00486 -353554.50932 917417.36834 -511315.61796 662724.88864 -244308.65658 -354729.75469 -274860.91466 
-175973.9123 38274.774189 73921.429774 -1066770.455 -560651.97344 -473546.54036 2368.321955 555694.6524 823658.05599 
1442449.084 2189226.6646 -577175.62298 1844440.4715 -341963.58867 498975.90594 -216700.31004 125149.86861 3151102.142 
335969.22712 955592.39742 706306.77025 1150755.6369 1471073.3272 2373603.6957 -21321679.636 8136247.0884 -22851.699685 
1073077.5285 1111801.6769 -1300937.5988 1738913.0506 2334532.1554 6164668.8311 866580.88696 -3475.7160548 2096708.6621 
-590064.81164 -197934.0016 1543991.3133 -461197.00502 4819438.1422 -1078.4181703 -930443.00875 493156.81449 669134.93699 
132133.55218 -188829.85952 61627.166259 2836843.1012 -840691.9028 1629870.5555 236251.87984 -486950.005 239183.57667 
-6989142.9001 2751483.8404 3675381.9284 -2464978.2675 585981.50408 -5528083.4521 -6680972.8253 -574984.49672 2189634.7811 
188026.47799 -136359.61513 1441898.0324 -218258.60195 -1132354.9055 -680923.90455 511275.6526 2188708.8273 550772.86237 
1101635.6994 -255761.98427 4039796.6541 2743113.2726 867627.50736 4664430.1593 1098057.3031 2898857.3492 -1591137.6536 
-256885.94641 -2089789.1664 -1464634.9244 -1001505.5703 -1679188.5191 138782.55324 174024.60791 641073.09213 105667.80317 
-226290.21398 -962175.90718 72636.248431 -1098620.3113 -8733056.6776 -769946.44856 -3790906.2185 18319124.973 -2414992.1103 
8643496.8878 12723889.091 5336445.5476 729814.86839 259702.69173 -7526269.6539 -454923.08509 -839892.80393 500790.73532 
548865.85586 74522.204441 -24091.530762 -289920.87532 -3565918.1835 -272495.0552 350265.1947 549865.25986 -661097.10688 
-348584.72254 231363.46508 -691169.5623 -1246700.9658 -85846.112551 -2072292.5051 -811215.17334 -1321459.9751 7942492.7182 
2462886.7147 1961678.9709 -3182885.1563 3733366.908 4248470.2558 16809940.479 421204.72857 -4026231.6828 -831903.22967 
3872593.6703 -1093658.5695 -912790.7789 75721.965839 -947966.03475 -1056210.3969 -3322355.7094 -436310.39446 1050557.5536 
-26241.950751 1345258.0811 -4606640.4187 -3130750.02 -133591.02075 -776096.71757 639406.58001 -6036129.2936 -149658.66449 
-755072.18067 98433.429166 -265712.48981 81716.426899 -390980.01945 -754480.06404 -505626.89751 88284.791249 -322086.47448 
36361.954161 -80012.362221 -738185.47901 817892.25317 -114942.18692 -247684.67303 216251.26663 -128611.16205 -889367.55145 
-763412.7501 -772006.57301 1502862.9503 923053.41217 -573151.31046 -860255.24836 -389537.33621 -149598.26143 -1218441.8578 
-338667.92935 -863898.63305 -1474618.318 -607828.42878 -815371.08552 184125.41579 -329986.3912 -1187226.4244 -730080.12765 
-1541520.8816 -1221258.5381 -633503.14827 182021.15988 137354.35369 -354207.67532 -84873.261077 -78199.41971 427826.00083 
195105.68075 4626145.0875 398995.94462 -468386.44583 7389935.168 -72715.76733 -733286.75748 -1316238.6155 1225489.2535 
-11387711.577 -12201164.533 -41937.489425 707567.02656 29052.40876 -162932.44737 -5833422.0003 5883.5361582 4152661.3976 
7094108.1556 -16055317.337 -13367053.951 5779778.5417 6102329.5212 511577.29094 -275286.93666 67208.96919 1067560.1117 
-498681.04985 -18030.582699 -3989501.2997 4861461.2294 -558397.45512 -276752.46887 -835579.97028 -11047960.722 -5841279.8361 
6155428.9245 -7398405.3399 7850699.3616 -3862298.3847 150323.8194 2440755.0625 5797310.4619 6611994.7461 322913.43431 
1757305.9535 -1531836.6825 -1729821.5159 -588865.4925 -2508696.9822 -435954.2189 1347661.2795 -22898411.461 -18738411.212 
-31450567.761 1139915.7304 -277578.2004 1883805.287 -553754.71407 -1585464.1275 -919677.88944 964398.45859 -111558.64225 
-275618.51094 704707.8043 3400030.6444 -248676.79025 -176380.26547 721427.64998 -1612978.1932 9786836.4088 -1484774.2242 
2615477.8415 -4234557.9077 -347878.11877 977654.90254 -6600534.4633 -236673.24176 1046118.083 1002232.9886 -7762.9535696 
212217.58892 12920764.661 260528.04517 664172.03803 406356.54596 -732753.49816 -1256248.9818 142177.72018 -10112239.58 
1198201.0988 5049893.9767 -6552665.8527 -14419167.857 2208896.7181 -217954.54239 -114259.58348 -180185.47655 766030.60593 
-767857.04567 526492.90913 6094822.24 -1329007.4571 -4347247.8227 -1260194.9669 -862230.03629 5984673.7836 5542834.3031 
4744987.1944 -1449228.0946 4533493.0376 -3314670.2723 3573712.31 469466.82848 -7266615.1583 -6587244.7097 115005.57005 
-8233042.0499 7003321.549 704534.61333 612597.36012 2340860.7527 -81196.447854 2573031.3966 16251567.999 18981628.406 
12645051.386 10472772.861 -201874.09034 -287156.91606 520147.92375 -464304.23216 -219816.42791 -2146663.2177 -3126262.9844 
-4017842.3779 -2530046.7736 -3483595.0164 1558932.4934 -3826206.8432 -1820112.2767 -405273.51438 -4508592.3673 155883.58082 
-229007.80064 -288616.44985 363865.99292 216414.68151 -253258.3215 -1803566.2757 480293.70963 -3129822.9984 108430.43947 
-21991.266403 -260893.00566 249271.9316 -620800.31395 -93007.790208 7656077.1451 164286.09704 466946.37859 500046.24235 
1411334.3055 -313663.32506 1740664.6835 12873351.202 9697251.9537 -2677754.1475 -643592.33093 -4608698.7121 1309160.5614 
1372815.7252 -2040935.0547 1347034.0235 369855.04242 -616343.02285 714426.25554 -195926.00014 840808.83558 171834.83115 
-1212502.1401 -92245.787823 -3727.2221625 -95952.042324 940342.75398 -738581.9237 15706.065104 -1059067.4659 503505.14469 
-201543.20106 651561.02432 281359.68365 -512443.30272 -141021.89647 261816.24075 -613665.45845 -312920.43637 -817142.33565 
-414965.1746 7440540.2171 446546.35579 -158940.14691 -621356.07201 374324.76007 674925.9735 3149272.7203 -316796.69179 
2152879.3004 492392.34683 59342.038601 -300412.59332 367478.41236 106695.84736 220128.61816 -2259227.9082 435138.92318 
-2839216.8039 -511253.47231 1185930.982 503042.76176 814704.79771 161192.69986 -418570.27897 -1241012.0077 -505256.32524 
93944.40486 -844872.24076 -260447.38213 -710325.59914 -691791.79574 276915.63561 47490.45321 256521.07385 216949.30198 
-894985.03431 -1031285.6417 3252311.8658 -300256.57747 112990.88231 -473481.29766 -679507.48556 -26859.185107 -235536.65764 
-19179265.543 -223317.8566 353732.77311 852926.80397 -582797.32442 -129330.41301 -7663359.4917 -6388981.4488 -18524816.66 
1199651.8259 1816531.858 2743816.2551 3183336.3704 510000.79837 251733.52593 1016982.787 -1291193.4525 -462425.4273 
603209.50079 651753.23784 -684659.50799 883690.44599 456999.61495 535753.90849 -559963.6667 640450.27776 -38509.782467 
-659263.15957 -586041.15452 -250750.45517 484449.3351 419481.29735 437381.88603 -1630462.0512 -396626.42118 766926.04663 
-45285.22716 -691023.70765 -660582.76313 2982709.114 -2222216.7817 -1266203.1603 2621990.728 615381.14844 -566320.58648 
290573.54274 -3128476.1172 -1181175.531 405061.87563 -10372.796752 -18494.181323 -260320.7226 -230028.24596 -169785.90903 
-418904.4743 1364998.2069 169521.10257 357922.52362 564393.93451 1576712.6333 1001746.8136 2042792.44 1110256.264 
-371807.83917 427142.49679 -991433.22349 -189533.8989 -872334.82785 -129333.67451 -568669.32439 -384379.85373 579414.51539 
-13534511.318 -2237117.3604 -1598169.8843 4415176.2837 -6651156.4039 1885252.6453 912575.55278 374292.34287 96487.256528 
-128105.50785 -5544317.8686 -478087.59452 -139863.84507 -134703.82421 5593883.0433 698899.78299 -282262.14041 -394729.94546 
-554514.3839 -54825.533463 301919.45398 4352708.5915 2224198.462 -4740984.3298 -6277934.5059 -12720444.915 -1773993.5752 
287477.65039 247078.81175 93136.876187 -865010.19589 752433.17473 -541532.45796 569071.71941 926917.39138 679142.11576 
204021.98037 2231932.2094 -797460.90949 -1202916.8032 211439.92851 -524588.03353 -499866.5185 1378186.8614 1187095.1739 
-37835.417879 596099.33493 -130648.07317 146649.90541 -142633.1999 10316737.048 2009518.529 -3523357.0872 3630419.3052 
-198794.22502 -133482.84551 392088.54848 -408265.16603 1076002.1822 -1964420.3465 1801524.8245 1142375.9293 -1640536.624 
-156343.96375 781094.76237 1756614.9899 458908.99171 1985076.7185 -2477731.8652 -481114.89656 27441.90736 -1205224.6548 
-3446539.3107 962126.73315 3670506.8429 -74894.581866 861.2239856 -773203.59439 171909.02142 323586.91829 252356.0649 
-611365.53496 4289247.5168 1188474.2779 -229600.08917 1004022.9999 -2761728.3056 -677520.53472 528350.39809 276573.94409 
-440484.11303 48117.857236 441847.62923 -3094359.538 -3303373.4047 -1406619.2744 9175973.6635 10592454.877 392697.87796 
-438828.04898 -519753.34852 426179.26537 -746235.45395 -927125.09197 32351.43514 175193.34938 11936.38614 684468.72013 
1348954.7477 -1248189.8173 1083569.9992 1568241.944 -550154.23146 883049.00439 237790.03483 -703789.83642 703772.85078 
1167127.5197 -393623.09536 -217542.26266 -278606.696 -372673.56027 -7245580.9181 -8007794.5911 1731396.3424 -2680836.6397 
76815.511628 -777634.33077 642658.29659 250064.78148 405410.41343 -1077300.8158 -13883.657362 176006.04311 2571953.7782 
-1570480.6493 -265528.35833 575030.45589 -1209920.5836 1689335.0796 -1022510.8772 -578000.55607 -808845.47805 -1270892.4963 
5669.7234763 -462999.90141 -3124319.8912 613695.21518 -377838.18011 8959038.443 1484964.3329 4424074.4649 -4434117.3382 
7697998.8946 6499069.8112 -660959.45989 -1743026.0336 6072101.7613 8991179.3287 -5594315.8633 -206164.59108 1113403.678 
6229854.43 -8826723.0903 -6519756.0253 -523519.83841 -1420096.7292 36544.365804 -684171.37713 -3427910.0466 -2106763.8454 
285827.80101 -1318131.257 1849105.6418 -318770.72562 -619508.44914 1696768.7712 -2695587.7245 -8332759.6683 -442170.7817 
4814238.4386 -2702236.2507 4101893.7195 258262.00338 -955719.19301 -1045020.2189 7573031.2297 657475.93693 -414635.427 
-710145.51796 -95339.804705 -1207814.2161 -182556.00214 -8448566.7171 2099519.4284 -10450047.261 96146.802269 -1932907.6756 
-1452900.2541 4409673.4051 186746.44593 146243.06661 -96744.159592 392562.26772 -541524.14277 -456278.51438 562842.48481 
-220229.20137 31328.95358 -58308.549541 221881.4831 -535073.85975 -170983.15148 321863.83083 -21118.814662 -1129503.6627 
42302.366265 -63874.996425 179034.25542 169149.81383 1048606.0278 -142488.9681 856857.34801 554015.32205 608464.66912 
-656801.03485 606139.41804 -251264.75644 446883.77226 -367950.33061 811253.32323 808493.86672 295114.4284 1143716.4907 
-491214.49989 -993309.45455 2510055.8354 8010141.4256 -1396601.6136 -1088425.0746 -911227.20078 -480402.70119 828969.87726 
-526772.05019 33737.443544 775067.90277 427476.88213 -207293.97942 -60639.064628 -139856.49322 185232.58413 430201.72894 
349559.17698 685853.34105 179355.42232 -500017.69252 -420771.65354 316296.44923 424549.43555 1827730.7615 -326130.37955 
158689.84878 524208.09795 -473548.16691 2189047.4007 486846.1189 2070695.0175 190334.23476 248903.2399 -248957.47401 
1354167.482 1861873.8947 112812.86985 568802.49889 -29690.992346 1692015.8569 -216718.90911 700203.74828 -987794.25357 
-329385.53765 -667011.62711 -813355.461 1806899.2111 369719.13882 26509.471864 3119893.0277 -1822936.899 -306569.31772 
157216.85818 602435.85334 -65007.160244 913358.58584 -258114.65455 1226673.1386 2659597.2581 -655622.89492 -826356.21373 
-1752432.9273 -1945206.9976 -275395.06037 -280203.9786 66757.810011 -62565.151921 -513259.4003 -391955.68706 -51978.471971 
137197.50551 332059.77269 462569.18227 -95856.448787 1012921.9253 776778.43003 -431551.60192 -538929.76266 71860.974452 
4035.754966 -1449000.5988 2641075.5081 79531.704102 -321677.07437 841794.48056 -200998.38446 600154.31609 -594960.66565 
-252944.8979 -13836.808443 132188.16054 484954.65263 -1392198.611 -754259.48442 16143.473061 2496619.8371 -1010277.7592 
-172745.11231 -578593.14783 -4346464.793 373076.91399 -201563.27933 7687652.554 4567157.4022 397884.43368 -8075631.679 
5980627.8893 -6084698.0871 -10004.420743 530937.74587 -551960.61497 -593090.43138 -418072.43166 -124421.16106 363994.31854 
470033.05108 -448046.1569 549696.30389 26468.75301 -2872083.0567 997519.39611 -3333845.7935 3383226.5196 509226.7243 
5491850.9717 -2736644.9434 1227578.3218 2841028.0329 759804.87724 -255335.58111 -346581.37718 -51715.367893 758504.64357 
125887.54193 -147507.9681 726725.99673 -320004.4439 -209827.14487 -423460.35402 765717.15782 -503182.26578 -1000699.9211 
-827150.92117 -559741.46055 77907.4479 -1483362.5276 291898.16583 224580.42176 -120051.52246 132407.28053 -261081.51095 
-425976.7081 -325143.53037 605421.59635 -902165.18351 -323469.91863 8223082.4131 -6837319.3582 -3504943.4879 94768.439523 
-196104.64857 -35694.441098 -459694.2025 297268.23184 -123013.30096 315337.78888 -138380.4697 -292927.2053 -2996779.0333 
-2123680.9745 -932067.55416 -378855.11463 -495944.78158 -9239.1921555 -337307.95642 163849.40312 -938765.62683 -1238068.9109 
43630.211723 -19170.511362 345347.54129 1409406.1096 -493901.07549 -587152.52012 93284.35104 517193.97134 -195362.87209 
-753032.80882 -546127.54233 -349784.18778 -1051869.1749 40957.476183 -71764.767626 272351.53156 -58773.823308 -1916426.9908 
-2601809.97 161870.37379 -4987405.6786 -1051253.2684 686812.17167 112753.08495 247825.04375 578477.27096 -177010.44565 
171319.54561 -196954.41741 149109.87737 -112081.56544 -5220.546032 1054921.1477 4631252.0482 -52418.661058 164017.53323 
183790.35028 446634.27203 131897.46323 -181723.35337 -3651469.0704 -113827.93236 -408973.06652 35256.986748 -1761012.1397 
-233668.88 -494713.51336 -1363503.5599 -373494.26986 95465.791169 -91811.454393 -187838.51938 -203673.40032 -338080.50326 
1861721.6326 -3834137.4532 2835683.2018 -3164.4211916 320737.52296 376250.68008 146674.08886 314131.48181 -856295.97357 
376810.20206 1123846.3417 186354.68632 348266.74433 -603495.63596 1551443.753 2802977.6272 1339124.6291 4631454.4865 
2080765.6025 1346620.2927 -4311422.3482 2324870.6944 1157966.4839 -1078899.6754 -457819.6423 -114259.64801 -210914.90051 
-5268329.4106 -176792.5263 -1663326.9444 -1244718.9576 389261.93665 -891698.94203 1879083.3124 -13542979.403 2928191.6879 
-254531.72909 86893.213123 402377.23526 47336.272695 -149637.77411 -297781.32429 2350619.627 -996104.84086 -266693.70018 
88953.761489 -313225.98555 -510278.90935 59826.021512 -148329.22334 2760520.4218 -369229.83535 788875.05694 1435205.9701 
820938.26311 1345600.7625 -5316738.2758 -2932351.9561 -1379393.4952 363051.57123 -4820811.882 -5937219.8477 -1329524.3182 
602108.4651 2001009.1138 1370390.0619 323000.37864 808362.77581 -885483.72427 -319709.05602 855082.30303 -60025.798735 
-2000586.0432 -1246045.0443 733267.51392 58733.358002 1298177.0603 -1558039.4761 -2125008.7865 -315830.24259 6672.1914288 
-1278956.8721 539881.91177 245.65560539 -1225225.7718 -9561054.3843 -1021112.2126 1398391.0946 9484065.3872 20766.744391 
-2282286.6323 9989947.0132 1131482.6567 5673322.9237 -487082.26154 160323.5961 4961120.8371 109138.65195 1555869.5696 
-507360.90534 18295875.145 1383724.6316 -2211174.0256 1293183.5738 93281.397763 -215871.00837 -1873928.2215 -11597758.795 
213100.31581 92025.997871 394414.90312 -718114.81554 -1207025.5817 -72121.756272 1657956.7049 241456.43117 -332975.29628 
-1583212.3033 512268.6613 -439441.52419 909080.24794 -777268.91467 3617544.4431 118900.27179 -889327.26612 
Stress%20yy%20component 1 1484 double
-352887304.15 -352213206.04 337140941.89 339219449 -1358439.7573 -1168534.779 2897160.5868 3361435.3941 93136463.8 
-136947288.74 159956939.85 -138499744.61 29927137.629 36972855.749 -120215260.98 126540525.94 -118671060.86 143029634.85 
-453334531.11 392925129.13 -246537923.42 -4808198.6548 51706905.915 15818174.671 -21565825.652 23000074.19 163971806.5 
-366041270.25 -130019555.09 30385289.821 32751330.211 -1062586.3924 -3865957.101 91344917.628 282783992.34 -245402198.57 
-8140385.3154 49493580.703 19443231.842 -22597241.187 24197998.014 165971366.75 -363586080.83 -129530733.75 30325128.493 
39319131.147 -3669968.7558 -5751211.0677 106596900.58 298734045.42 -2081730.5935 15469899.788 93740665.056 232622591.19 
316441462.1 79073690.037 -292608884.28 -220285122.84 2445632.9075 45941922.341 167921324.54 255715689.29 298807470.43 
-176473960.71 -232726757.07 -209925493.49 13066362.246 93758979.601 240287475.46 302243316.56 100108311.39 -282452320.47 
-225136823.5 2411136.921 45569757.538 167883271.98 253912735.61 312242831.99 -177662813.52 -235359671.86 -212951571.19 
4177389.4639 232808188.16 265270525.3 253231814.99 128404935.82 -14586410.646 -70268286.777 -29864559.103 232952793.93 
243525164.61 257890505.82 200681112.24 50732785.512 -49879351.289 -56467051.487 -7796515.805 240127018.39 253520137.72 
248250699.27 130923715.84 -16754320.884 -66002165.076 -31526606.835 232820536.87 243020562.11 257268120.36 199055694.75 
49987171.984 -49562878.706 -57886221.723 -8838229.2978 -264524948.35 -9159214.6734 -62720064.74 -267160372.67 -117809467.21 
-34887254.51 23727050.699 14257753.016 -34938546.108 49389877.526 12203288.842 -82685174.163 -110624313.47 51333323.268 
226651771.02 -144890887.01 -25205600.921 129405964.99 267417639.05 -272583850.79 -12784643.333 -58367750.281 -264576699.63 
-118381653.15 -41669060.613 21627738.69 56459099.618 -29032341.032 114105545.06 12769424.039 -72872180.663 -125259301.17 
50437622.056 221615964.41 -160017297.46 -25215206.446 131534484.4 266441046.16 1853855.2505 -336515.62605 -2731743.6714 
-1253279.1953 819778.90826 705980.63635 752509.29291 2827488.5425 808956.83192 -1820616.0161 -6757276.0846 -964451.01395 
2691301.8928 1767354.0951 321092.71891 698009.04292 -1240169.2525 -270822.42404 -1980104.9175 3532662.5117 1142072.4529 
1035035.9332 2040251.8612 361993.56157 -1196947.8936 -5915158.9588 -395314.15776 3677993.5877 1822375.4117 263767.35479 
2898644.287 -45629720.8 -131360901.8 2191472.1448 -18001295.315 -88608807.624 -84347170.841 -278690584.11 -270055640.32 
-128632034.24 -364866776.19 -99514701.803 3962664.2336 -50590893.85 -132148656.13 2497686.8032 -16514834.126 -87286838.093 
-93381350.358 -217205006.04 -310930746.5 -98239907.562 -276577321.17 20446331.073 -229476456.02 -147264996.1 -211617027.26 
109971235.14 5916862.9066 160695165.92 14388207.212 -15063072.864 -10918427.903 79919606.949 -3046081.3131 -13292798.21 
-5613886.7948 -221566840.36 -159491207.47 -205508699.35 104383584.47 12040868.939 150707069.66 8990428.321 -16530322.796 
-11695549.361 71798248.238 -5779511.0376 -14165902.979 -4967087.8545 -134588868.26 121906356.96 18607896.806 12405182.006 
64160512.641 -6492918.1407 62663659.799 16743610.581 41509370.332 71776955.82 12861916.185 74064591.037 45810864.822 
-118020115.45 129796736.67 243142131.51 82591530.731 -8016898.2291 -5359676.1763 -245358409.51 -96031029.258 27800605.562 
33813841.456 -307104034.06 -304678369.94 -266679573.38 -294215892.27 298068920.88 294348173.93 211061412.87 208460470.06 
-47580719.775 -179783248.84 -238975015.07 -163377920.99 42781927.628 11924686.988 -9482823.5383 -46828523.796 11001586.04 
21698049.696 43298679.224 47872433.241 42385421.85 43770962.406 -15836458.451 8306763.7382 17035036.375 8004211.0193 
26127532.402 9205000.8764 -16527876.041 -20556297.274 -17331235.318 -15802433.245 125592526.66 46843002.536 23979927.154 
52769458.423 8201331.2813 162332367.88 126808201.69 -226552886.64 -146683164.61 -245059619.28 324386992.84 1686380.6784 
41883500.279 167428890.8 263754474.33 -273232268.77 -274025324.07 -210067103.03 -210009412.48 -581414.29624 -440505.35871 
5253654.2779 5148778.638 64728894.946 25450680.249 15341948.528 25713056.256 197788134.93 137804609.96 93298699.707 
62951092.317 137751033.66 258264852.37 244948343.87 234529789.52 195350622.52 256979856.26 297835790.91 320413822.71 
289033112.09 303318179.6 269623959.66 -291186785.71 -59639083.721 100349413.04 -57107521.989 289923139.02 -226140464.12 
-261776142.37 -267120749.91 -277180868.31 -251409457.32 -242183882.53 -229872981.88 -6074240.9005 -44172695.082 -58765066.073 
57248792.069 241137524.03 266023445.91 244904509.03 203619791.66 274267254.25 274594086.52 230400758.3 226534307.79 
-472301.99987 -504392.92942 -14803766.588 -16225389.96 244981807.99 242841137.39 240380036.1 239593936.24 258376527.66 
260143921.7 254638946.93 265752958.08 249045921.25 230939426.49 168950513.34 250159738.76 256946373.01 232017210.4 
88164041.158 13982155.573 132280616.84 87953451.753 170011665.52 -29140689.703 -65321048.79 -19935010.052 -29191682.883 
13452214.282 -69252306.03 -46367374.942 -67136888.784 -66210545.002 -68282577.292 -30329857.228 -46420053.821 10541603.981 
-73362071.073 67085368.964 71853685.954 -62628062.967 -107570520.1 122743855.58 -28674777.344 48844608.823 13275867.067 
-26746242.132 21935258.733 -71493014.887 24823492.238 -249427560.92 181581692.58 32803642.098 134843858.81 54234747.479 
-122849134.09 -72149002.742 -133044973.59 -137211112.37 -28746238.218 -160221675.9 8249920.2416 39126926.611 -20891469.92 
49205084.636 28960443.879 53008368.824 58942102.04 51340056.193 -3323043.8536 -25032842.581 9693236.6163 -27380789.879 
3941361.0909 -41381793.91 -51001631.987 -51111848.476 43706032.883 115023366.66 15902600.11 145429494.05 -18187406.182 
44142381.228 83064665.25 -56204192.669 -34490645.241 -1578750.2227 -4743911.4772 -3490885.1474 20446791.743 89299264.132 
-13343202.15 -88895407.16 -96041442.748 62702326.017 8734339.6037 -42264588.581 -40634992.652 -48414255.056 -88448213.093 
-15726167.377 46071918.211 81893918.973 62777931.697 33060424.041 5281554.561 -77334196.968 52032845.283 4766962.0947 
-68676515.934 70662172.278 70537076.152 -62369062.568 -103575486.18 146097358.06 -24591286.51 47260410.852 -230163.47425 
-20150052.279 23524147.566 -67297959.045 13053930.192 -257759887.5 185269924.47 156484666.86 59678094.022 56989843.724 
-43097608.023 -104043523.76 -137142119.83 -31897954.599 -136850659.7 -183802123.61 39453370.331 6402013.1321 -17100318.309 
30327764.776 49209769.094 61789298.598 53544537.074 48329825.941 -24340787.939 -855944.80862 11287185.836 4173068.4235 
-24734055.066 -47908362.389 -39132356.395 -48122005.737 115223137.59 41110214.864 19970564.038 140720023.13 40072107.515 
-28659373.095 84143346.466 -59405185.004 -45748492.398 -21435061.161 -16229541.592 -11876953.405 18473093.705 77592838.894 
-85406214.825 -12047127.536 -98617863.864 65862768.429 9819982.9649 -39467469.975 -85837705.037 -48071413.997 -39481470.264 
-14604599.015 71683438.176 117490718.59 47041284.155 33055017.65 5121786.883 -75858536.805 53675858.394 478250.46968 
1586827.1935 331016.55436 -493046.70681 213236.57752 342409.87425 -3674617.7216 -1154058.1229 345322.23549 78931.389051 
-176811.05651 -275484.75693 657765.56486 876269.09239 3694311.6863 2328702.6754 1093130.1709 109996.30982 1143614.6135 
-453490.50867 -2724410.0581 -3467482.088 -332653.90504 657900.04834 -5792805.1356 -2882801.7587 -2904769.743 -2763538.9563 
-545263.92471 -1626650.5082 -1300006.0539 1236194.541 -1822837.5296 1305374.2435 -4417806.167 1013688.4823 4792972.9509 
2531148.8139 5803164.8378 -2639155.1542 1398197.2303 -113456.04777 950387.49336 2779399.9487 -349978.46347 426970.76106 
2217545.0005 -47691590.82 -25793591.494 -43812463.709 -228942058.96 20994085.241 -27858969.507 -186615494.94 112272619.76 
-59888086.336 -162557074.54 26090194.118 -26399979.123 -80985909.151 -43503619.383 -245965658.58 11491676.809 -48881987.042 
63490178.839 -124712416.6 -259754284.33 -136768014.83 -154274594.91 20247040.396 56890108.578 6963937.5761 59850674.269 
120258648.26 29103775.097 179036976.49 228722491.85 103276030.7 14156848.856 8416392.8687 152968377.29 48398381.818 
36157467.322 -15739488.792 -176088562.92 -28657764.423 -28183428.314 -30311709.833 -252934129.5 -242993809.71 -115204439.17 
-243264653.73 -91500343.425 -41536507.199 -55860128.122 -26319252.92 -54697918.964 -4538136.3791 -183708301.16 -232951570.6 
-159147169.06 -80689365.725 -11557838.879 -109205063.19 -62343548.31 -17496887.538 -28147004.583 -131835077.11 -38756717.265 
-84589886.677 -92303253.882 3095943.106 -34644304.351 -32667116.468 -50410049.16 -66627165.592 -92796356.457 -61233836.788 
-55272410.194 -66676920.38 -27233286.656 -43673053.79 -230925041.52 23245755.278 -22507042.778 -184560660.43 106035296.9 
-63686416.576 -162090835.95 35996218.781 -32003257.336 -81451324.029 -46980683.975 -238075919.87 10905959.805 12917620.547 
-49407644.558 -135697347.09 -113414521.75 -260838034.7 -149954612.59 57076329.891 21711405.549 8980306.3872 123987795.28 
63020276.181 28271513.919 216829572.12 186992907.72 14813493.478 104938245 13432922.318 33949922.476 155032921.05 
38289095.808 -169330835.15 -18627588.115 -53567851.328 -12322920.394 -36341226.962 -242849549.67 -249114322.83 -131311225.34 
-259466322.9 -86386778.883 -67210348.681 -38867979.164 -23702257.26 -52165988.667 -18261072.625 -178995067.97 -245292248.13 
-194838637.81 -50852407.696 -16167614.895 -63855102.079 -107538466.17 -14529368.185 -22701933.441 -124990773.72 -106769035.6 
-79464418.792 -41012744.115 -3536619.2645 -58983445.817 -20284205.081 -22497260.967 -78516628.502 -121603598.21 -61243940.022 
-47753743.196 49227262.46 774504.35467 -10343183.918 129937580.39 -48134196.282 730870.03626 -81238924.194 55055201.285 
-22733122.426 204885127.33 -11989750.977 25112128.897 125827813.12 -209244952.6 5040540.2591 -8162420.695 13646925.105 
231841543.54 -19936189.365 -182189327.35 -152264728.97 -212017339.92 35086204.475 -57967995.907 -102003270.62 -174165890.27 
-50445232.7 58781179.321 44173240.106 18462881.375 230568053.57 240714052.75 208714784.85 203527214.07 192320306.83 
162371344.07 187340173.34 132294305.28 131998356.95 70989117.288 11086691.959 91339608.348 38467488.868 86447733.919 
-6441897.1042 -30507308.012 -616569.20263 -41641729.645 -27081232.39 -20857314.821 -18791703.171 -47765318.121 31421074.836 
-77753428.4 -133897706.12 -14475433.42 124614239.48 88777695.306 71947841.218 2421975.42 -137390301.15 -10537767.803 
7674675.6355 -4105184.7029 -20099683.073 -13740468.246 -15028294.412 85249252.342 45626296.734 6990266.5428 87838877.255 
-69211519.054 -6486692.8569 -32871347.496 22395068.528 54308539.036 29107560.793 -1631158.9441 363884.3593 -8210873.6723 
10662759.916 -10676291.098 25060874.884 3913503.0376 -6963085.8526 48182344.943 -1253123.4857 -14771708.857 131534151.28 
-47760184.129 1117251.7263 -84243174.931 52632133.145 -25625884.173 212203261.5 -6284082.1735 23882015.162 127902632.36 
-192642099.96 4427354.1404 -12409055.367 14270933.879 236080029.35 -20801790.331 -153873179.21 -163177838.29 -198024646.13 
-57479845.003 33539580.241 -167284156.65 -97064612.687 -56010426.099 40511091.321 65391929.462 9086266.851 237791411.9 
236368013.33 206635046.23 187070938.15 203387184.91 170514420.12 132879067.03 185801127.74 131917709.12 7370296.7953 
68201668.051 37757666.089 90449197.889 85839282.192 -32207352.861 -8948684.3861 -1063148.9182 -28719110.036 -42349353.921 
-22969605.704 -19715560.678 35087337.27 -48455618.487 -130963237.32 -83745711.351 -18260880.179 126973064.81 89729856.038 
73572284.615 4904468.5187 -156251126.25 -1755293.5375 -14013928.038 -6129377.2549 -21497544.792 -17694888.945 -16947507.173 
7728128.4863 47378596.769 85373644.787 88663327.176 -14925856.619 -65240831.311 21881613.31 -34390010.941 52538712.144 
27178670.076 -8992823.4637 -2378925.4011 -2990294.6239 11097452.633 -11772934.195 24523794.833 3339132.2659 -4756426.8763 
138744494.87 -75129061.014 -27772953.784 25849034.874 46382.276543 58328929.54 29893147.575 -19273600.198 -2477905.5076 
-7650282.6565 90019690.193 2723199.4226 23172764.516 5172107.2305 55366044.918 1255783.3987 -18013474.457 9089164.6585 
-58852330.822 169569.36638 -3396245.3434 29685056.53 34089590.689 -82892432.569 64785896.149 100041625.55 40919062.277 
-2021626.0209 -529551.5387 -5043012.0682 -150592.88958 1974751.8175 -2993482.8907 9754662.8817 8447367.4148 12133909.582 
32509270.684 12561315.712 5917071.9594 895161.00953 12494813.59 -5566536.4065 -6989766.2487 -6701313.3549 -368292.05409 
-20808542.217 -4364752.3646 -2157922.7839 -14124328.763 -1891538.8366 30971629.105 20942368.828 81065445.366 39645333.013 
-24327016.659 -59055745.67 -85721990.649 -34431697.542 -36597225.82 -37943904.862 12648121.88 -5984000.2147 38712055.131 
-7115798.551 -3956206.2669 5326158.0666 51787571.929 62616852.393 70618170.813 44780608.257 14552153.985 32762034.111 
-21077812.873 23481084.553 64335412.868 20481806.166 -40358420.189 57466860.357 31227798.589 -18737401.58 -4050503.0772 
-7465499.4865 88083006.083 -5762969.6513 22177195.091 6694061.0086 53296481.981 1105654.8376 -19394402.773 9164902.843 
-57004189.053 -402636.08981 -4620073.1215 27778502.912 30648989.135 -79275481.696 112901433.24 65680991.649 41790299.712 
-1301505.5059 -2384509.0507 -6061038.9689 3649030.3635 -38687.717347 -3500718.475 8323738.4451 9922894.1846 28884896.927 
13079194.957 11063603.549 1947351.9794 5669254.2647 14124506.087 -6625651.1979 -5624720.0498 931913.8188 -5414543.117 
-21081763.423 -2108821.7631 -4961500.8073 -16539590.755 839627.76136 37457622.878 33407856.916 77806961.739 27320624.886 
-24704835.637 -84745190.946 -57239491.446 -36331963.443 -37627215.443 -43231009.987 -7028736.9638 11344410.704 41252172.065 
-9185457.8162 -5173816.1623 4508016.4499 81310238.321 56542799.945 53589015.961 44052287.549 -16953324.246 33900128.877 
12180009.351 25962836.819 65632074.122 21443328.743 -41543892.65 -46986937.191 -304900050.94 -60134908.298 -238972859.62 
-358441982.19 -179069223.8 -205288045.94 -140308876.35 -147109689.82 -192669019.88 -194404262.12 -166991983.88 -164176484.35 
-234585179.85 -232339063.53 -209298721.82 19075120.932 136463890.02 -46685585.296 -53183435.674 56551468.055 138282432.94 
142486459.13 148457108.41 59694001.478 140875031.51 111515807.63 66370841.295 25347036.213 56211023.334 11007830.311 
-516805.45429 -214389072.24 -213433390.82 -48238459.585 -88136905.914 -141883154.66 -212187682.12 -140408859.7 -88831012.323 
3085416.0031 -7267289.7751 -34072916.576 4564044.1486 -186711520.81 -186069240.28 -203193388.68 -5167151.4278 -81182234.897 
-52485612.194 -144485939.01 441654.16061 46258425.089 22364254.27 5226774.5934 21789911.12 58062469.439 22870891.407 
62822553.722 62506337.011 53670474.484 92079052.481 42491102.545 38567339.422 -30110107.15 -23134992.094 928860.43752 
-487600.83392 1451435.7475 11677967.179 9629038.6922 93057373.556 77922321.721 14616159.699 98542256.651 31665715.651 
-35816372.472 -14358974.366 -15596862.416 -22792792.808 -49000178.546 49021812.774 44762264.639 22955405.629 22645470.312 
24528489.279 -22175116.479 -60972086.561 -82156496.691 -15055373.523 -99144590.188 -8599874.0272 -10504807.767 -8884885.3931 
-21241490.937 -18599290.604 -24766501.824 -5656094.3073 553035.46609 26153698.415 -3711364.5492 -11727361.511 -10037472.773 
-14737502.09 13799669.934 72327049.77 89624756.575 32691940.162 -12402099.545 74771980.135 102586042.62 10802681.161 
13428210.153 51544860.854 -38574562.968 -21406678.68 -6610735.0331 -29690202.957 44525100.913 68416959.836 29918572.738 
-44328705.45 -64630225.661 -37324066.277 -70316769.908 -19043869.744 -10322280.402 202107838.3 206277627.91 -58466165.25 
-36743066.847 -57836175.158 -40590459.886 -43487486.147 -28874291.646 16673177.212 -22217189.141 16559396.79 -15549637.451 
-60288492.335 -78508426.576 -26676955.103 199829274.16 187267225.67 -14042185.621 -155478977.12 -225271794.17 -117397938.15 
-9085405.3893 -72715230.206 -16439243.956 20740939.422 30163769.491 -24732517.668 -7680609.84 -15172521.256 -34188832.392 
-70857639.427 -45592528.263 -19627646.803 -3000195.5993 41019383.66 10477464.052 162927587.43 127027573.49 163969880.67 
135125637.67 -252203109.98 -113992048.03 7478245.3638 -1548367.6121 -177341415.16 -6194187.4116 5198317.0799 9425596.0476 
-86782869.263 -81639469.988 -22067061.776 -48793134.85 -49273442.801 -104505766.4 1353071.9291 -263156320.4 -260951932.69 
1380872.8209 -9554941.2555 -249336807.12 4651099.6267 4970913.7853 -242989346.97 237984356.93 -9738642.437 233987240.18 
249390401.16 249894388.28 -5944189.118 -6104609.8244 65186428.455 68295472.455 8485645.0949 76827046.075 -8652570.834 
-3668137.8636 -2702466.3506 -3101004.8267 1850919.0462 -55360667.405 -195653.89499 -185253832.87 -99028825.199 -157077722.84 
-90579450.843 -83168548.855 54616818.01 51691902.666 83236447.952 63705991.487 24941409.011 1970803.1352 -211387287.94 
-3826369.7938 234872909.59 -13327048.142 -69427825.128 -38152224.249 128273303.86 -5607678.7873 -17610.788594 -5406812.282 
13944281.047 66628210.021 19751688.601 74287562.603 -21168828.585 -24732995.038 -21143306.101 125149431.75 163566939.4 
204181872.7 2803107.7698 45001345.288 76787471.354 77487531.923 -251982893.64 -246314802.12 -249546803.82 -3082532.9917 
-3849952.3617 -4386859.4076 -2142750.6835 -728758.99716 -138027.15456 33860396.569 35223978.208 54448393.512 -80783790.516 
-79988180.586 -39969333.776 14225281.876 60244388.635 29177163.799 143279045.12 131479699.8 -22821709.009 -81920216.061 
-30256455.313 -37155959.374 233170212.87 231354519.87 -46306061.729 44907813.3 -16532265.487 -38902377.307 233221700.8 
22418962.75 44218459.341 30935699.608 -15889461.526 -26093371.504 -49200720.632 18154795.317 -2565245.6009 99608953.632 
-62934464.784 -71968376.318 -74247106.248 32269925.239 49645877.176 61734541.533 1331952.6192 5712051.2865 21456114.002 
11518466.535 -40627318.601 -2191698.2732 22427628.384 -139473087.99 116762228.33 -241231650.43 -1970494.2249 -15239898.759 
2501314.7873 -289308904.81 -47802511.061 -16446231.424 -7931593.4403 -6941655.5201 -24210693.694 8548953.6341 180351293.85 
440614.68237 48026563.131 -2806877.0489 28738504.857 10602653.038 -1736841.6646 6343132.7199 6728328.6986 14460240.265 
50441882.706 164309041.21 223622797.32 -15620758.219 -15710002.633 84988514.249 48226559.558 8033287.6843 -127577863.8 
-55427827.576 51167752.249 -887248.10597 -2088614.0764 -125751982.85 -19191827.326 34935923.668 -2389708.8355 78002007.109 
49227906.168 135561256.74 -49914410.944 -52202758.91 -23975214.386 -90694644.299 -172902007.93 -46205316.1 -81016615.38 
-105572717.54 79038848.471 84777493.251 53934797.895 49142607.226 4050712.351 1502930.0867 122581977.77 109678775.86 
40749508.445 40742289.164 -13659927.355 -10887592.332 -15892773.156 -15946676.378 200748729.35 203287804.53 10590240.046 
10950856.6 85097114.5 237392545.98 184256711.41 131834987.67 -115651533.04 -22786879.123 -28736704.65 -72801363.418 
-42935173.705 65408884.348 -120529636.98 -97771256.083 39057793.474 43442186.164 191568676.38 -10789544.586 -149227460.12 
-103421462.13 107913132.98 12338517.882 4133694.6358 -152136.21944 -43359275.707 48232458.566 -57652257.926 -33240872.772 
7549014.6949 -41107528.701 56390695.647 9742116.7969 233347559.12 -70068556.148 -48699457.923 88826183.044 10625231.421 
34974440.473 -109496049.12 -19159078.25 -80038081.081 46183320.788 -146401306.03 36546117.188 -107437227.52 206565565.97 
33669805.494 -233113386.67 -62978491.425 73927300.507 -10543133.528 11563904.578 -244712099.3 18400.770644 32195054.115 
53381087.996 -244061118.27 -17075058.294 164673.10002 -131961181.38 64882216.78 -20010294.183 239048305.49 -187422497.61 
-261979517.84 -3418312.4398 194697879.68 -38316540.325 46333024.008 -54513104.28 -59928993.502 -74305814.665 21268412.787 
26985946.546 23215149.115 -1146055.915 4772637.4059 5773905.3862 -162992320.51 -7228677.0399 -84464764.273 
Stress%20yz%20component 1 1484 double
-59273784.221 55305611.506 39580686.25 -40756045.094 180127.34451 -200540.13495 -164703.33304 -15276.296744 -915057.0031 
-9169337.1313 -5209124.0162 7890566.2265 9329697.0061 -4449884.5306 3427090.7435 -389099.40899 -5667674.1786 -68938.976108 
-3168409.6636 -516223.33799 -34798970.472 -5942371.7095 4244061.0901 1864818.4609 830969.42162 5140401.4429 28093664.645 
-76646561.165 -20500947.893 1735275.1132 5789813.6909 397715.63834 1940225.0762 18532697.555 47694161.993 31927767.034 
4952494.8065 -2663511.5714 -3698919.5777 -314250.75288 -8123714.0848 -17525589.506 70869799.261 24140766.229 -2590867.6442 
-6061336.0374 -590164.45605 -1883475.8237 -19504839.033 -49514025.154 -11195.033347 -261199.7724 -712062.82334 -791147.33833 
3050549.2152 -1498121.2086 5639879.3356 -3669027.8695 159281.0509 -422105.04482 -2447102.3674 1427267.4274 1489087.8751 
-12080858.541 1929618.2296 1455207.4977 -817.68753618 786569.36715 2084387.3488 3853550.8117 -5236144.9532 -3911956.2626 
1157322.5264 -44925.478545 -191535.05996 1508901.2696 1414234.9448 -6596948.6163 3419640.657 -466849.06658 -4888861.2443 
-118032.60349 -4898112.7569 235691.97139 -428704.63811 -1073088.6899 -1901457.7224 220978.33964 356180.10956 -2982317.6784 
-107413.66882 -45123.66239 -70017.113133 -1088527.1853 280296.22881 -106475.82723 478886.87369 1919507.1928 150190.79484 
673993.97042 162499.17266 1462710.8614 -20596.353179 -163114.68536 3210967.5961 482079.84127 345942.47353 736316.32169 
268492.92336 114992.80002 -627381.15345 -587798.01011 8186435.4092 2104540.2109 898228.13769 -19868738.463 839392.84595 
3072529.9411 8199034.2556 4478600.1755 -4932085.8304 10460862.114 13081338.138 -13209111.467 742858.43087 -186665.07554 
-6408424.5255 -10935173.514 -829514.19626 -4037426.2543 15312312.312 -2988684.5567 -548251.95801 -1813679.857 19951382.698 
-10730865.636 -1820165.733 2120107.2208 -23053119.367 1842692.6427 -25750474.839 8474629.079 9402917.8898 -444731.84928 
-176587.32182 5481569.8588 1512068.9737 -3668644.6132 544983.66563 -16071088.664 -36189.190816 370998.26198 -433169.49535 
-438541.57117 -354924.08027 543071.12047 28023.521535 97385.605911 546791.65638 -717592.88724 -28420.76669 559612.32914 
-1391702.3588 140500.41795 41629.705562 116051.02147 -437322.61903 380821.27595 16233.038565 804710.50394 -408029.64024 
222356.34856 137334.95983 285479.98599 621187.51994 102879.48971 556470.7838 1015243.2095 -214016.46745 -90330.662236 
-321048.19237 -71137.209759 -1091285.9477 -464045.61659 -542943.88178 1008370.3996 -6155794.5735 26441132.964 -2905664.8587 
56631844.001 20234863.01 -17807813.916 377719.75394 -181808.20346 -846453.47444 420826.20501 -257907.59921 1554971.9986 
-571154.51172 -46846659.083 2145665.6795 -33105706.812 -15272167.306 24907402.856 8349469.205 -1831653.0715 2278397.7825 
172732.17721 4363041.2837 690553.10436 2186167.6909 6008.6826827 272115.29629 3460076.2322 92923.83329 -446588.32548 
458758.43315 -10373711.345 -4206035.9213 -2925835.4533 -1005880.4419 -5848609.6869 -2075862.8319 -1362185.3986 133739.17293 
-163843.73461 -918320.73237 63919.738451 -394017.84549 -643442.49214 2675580.4898 -6675691.858 -2415024.5944 -2193607.5296 
-203963.90979 -1318301.4515 3083846.1135 -2811616.9029 2250223.9171 -1719424.4059 5444823.0303 7493324.574 3449814.3982 
-1472063.1372 -890864.31824 696867.68642 -475364.02283 229234.02316 -195415.03166 1833282.4536 170067.70748 -298099.4446 
-65202.86464 -38058678.64 34665791.733 -22046758.042 36555251.637 -25457092.354 23689275.441 21817585.971 -11361627.299 
-6313673.7806 -16180193.822 -476981.31461 9728309.3344 1916422.8313 -1080847.2553 -1618980.8187 5778408.1214 231651.68492 
1606815.986 3670334.3307 1098409.2047 -1795894.9052 -1978807.9346 -306531.49166 122962.27367 -1171114.8796 -1152418.0387 
-3102044.0373 1633266.8208 969140.47756 143267.04699 -138146.26116 -40467.261923 14054069.764 3939655.0796 -2394628.5696 
-7959552.3109 -2653562.0272 9050395.2147 -7496072.2243 2057498.4344 -528325.17839 2587664.1249 6460991.5966 -252642.39502 
195097.40096 1608401.8505 3137977.5711 24121294.811 -24693318.9 2359845.2522 -1178584.9597 446860.94727 -639887.61884 
-46168.519642 -301884.0605 -192891.97145 -357584.82962 -129883.22767 301218.77144 2337972.4515 -366148.29701 927387.41927 
454055.03213 2454590.3301 814606.83401 -1789172.4162 1263149.1125 436163.6979 5517551.36 9701225.1403 8881237.9654 
4413884.7281 4297207.5355 8277553.242 3408838.425 -5322040.5913 -3924780.8404 -651914.77987 -6613463.0458 -5748216.9835 
5709931.7662 4109895.1557 6587870.6196 294113.12946 -1799921.6211 8671881.4239 -200988.34111 -440177.95206 247519.09627 
-685105.17229 1451212.6433 -517758.74558 -1025136.2637 -461506.7271 16680510.57 -16315483.192 -5812566.3207 3724239.1734 
443809.42874 -791655.51788 19745.665826 -161037.09338 -2973479.0038 79567.59697 -1165727.0552 1447436.955 -178831.15802 
758295.62042 -569947.32785 -615643.14982 -337803.3185 -77913.127511 100145.3052 -221161.01347 -1068619.1803 -116375.08091 
-89075.370995 -955333.98996 -1370632.7901 -1649752.6648 -1020233.0889 3011547.558 -40815.388147 -50624.580973 -2897516.5086 
-270122.13644 69745.222304 3642.7296936 388515.62786 453080.79164 176195.23082 559657.19643 300950.32288 -660206.55107 
212100.84956 40311.479956 -879985.45441 -1439976.19 2329682.6556 2475900.9703 201336.58477 -471793.3275 -4821550.6691 
-775266.44856 -1422220.0963 765560.20162 -3900861.7528 -7756826.5608 6972412.4434 12279047.486 14380287.291 17147371.785 
-2349271.6583 -468238.33992 -2550263.336 -13290410.524 -1902409.8739 1521982.9008 -1221988.3053 1764396.5974 -1387717.7517 
2916950.206 1312348.6344 945188.22386 -1074614.9832 -851702.60843 250709.58934 -184037.8853 274200.39065 -1122480.0124 
1900718.4656 2017972.8682 1273806.0993 -1017518.0307 2570841.8722 10408965.702 -1467821.7038 -1891872.1412 -1071605.0632 
6041106.0396 -3164158.8832 -973944.3036 1509723.5328 4943379.0731 726755.36173 -1124326.1154 -4207239.1909 -4465580.5262 
-929633.00953 -343811.14124 1898121.7839 -1907596.2094 158456.40901 -82396.744324 -1213109.5212 -1589622.9917 -1570200.7879 
39520.184007 138155.27869 -2272538.9874 -2824876.5697 -1222280.6864 -1949369.4475 -173178.55397 -4018631.0141 -278804.55368 
-698192.10353 3151329.683 1692695.5794 -5531511.0756 -58433.477456 -3872276.1071 124759.50145 25149.610403 5844795.9371 
249194.44154 1136622.8822 -193843.60802 -1318575.0216 13180746.566 -5447018.2257 -24619543.001 -21752871.059 -14669896.192 
2603387.5484 4720251.0192 -233689.62513 1390765.665 8895978.8204 -5341826.2809 -2523995.2442 3236597.194 -628712.58594 
-1756970.3972 -1641755.6572 1229695.0815 1027555.7486 991361.64307 158565.97614 -1208457.8673 418490.86214 -2169548.2097 
1376764.2475 -248757.72625 -938651.91824 477101.41948 -7748353.5201 -2494696.1063 -165461.63408 3420350.5399 13543623.659 
5798074.6303 17563648.044 -1577142.6802 -6057712.717 288801.65451 -2570797.04 1063035.8838 1918257.9879 10651309.825 
-2625988.9742 -660560.63164 -1431664.6646 975795.01443 70655.098884 -585624.31141 -1475835.1124 -3206376.6764 -762809.14135 
267574.8232 16599858.451 18553333.181 1021529.8444 116557.65454 2563324.0558 -1734683.6948 3797586.6377 15941.462088 
-369860.0103 -159024.94725 281525.15277 203686.16226 57076.250067 518668.51284 18585.700096 -105045.41875 54099.063258 
100754.29649 150546.79298 65036.984976 33064.761819 4741.9327486 245188.02501 -259303.32145 64415.166047 -373084.5751 
-259335.08351 -585785.79018 -96609.074644 -622670.97144 -93081.176436 134467.58499 37275.386802 -211148.2958 166769.24314 
1218229.4728 311233.95762 636955.99944 -687934.28435 -437545.94528 252432.312 -175349.26825 225300.55915 -1695622.2449 
-67443.682163 1004060.6786 -379979.22234 -201537.42171 311483.77204 77371.938857 -510386.85192 -299642.18433 201304.04155 
24335.23876 3241774.9377 -551572.43866 -7003320.5334 -2068354.2805 -228293.0224 -3123451.5014 -5965938.4384 -2429496.9423 
3304027.0116 -8103214.627 -1220287.9958 1780895.0591 -331563.30595 -2594384.1677 2147827.2785 -403806.42588 -6459865.2072 
-5691412.018 -4036971.598 31465007.463 9852207.9614 -10867962.038 -505353.04309 -652007.85685 115167.02004 -1742450.8239 
-324584.40492 -141910.34929 -6715598.2052 -5680708.5281 -960670.29742 1653892.2432 -2082837.8836 1535445.793 5153475.4274 
4660638.8286 1987513.4687 6719577.3077 -6685189.6459 -3000292.5928 -7332480.586 1899939.3531 -8448541.879 -395841.39221 
6609333.3458 2483682.7613 865821.76592 -2789876.7601 1953806.8836 -3801069.4836 -6315024.2026 -13299254.302 9560548.7905 
-3434455.6329 -6516697.8906 -904603.15554 290072.87917 38966.536257 782452.31875 -1450892.2336 -981889.70782 -780857.79366 
-9500951.0074 -8152589.1729 1191517.6753 -367192.21394 3895648.7511 -6054805.1077 4130185.9827 -1113569.5614 846746.00277 
-6424594.3311 -7283184.1502 -416178.66021 7618160.1087 -1236213.4726 466723.41471 5923875.9037 2792382.4981 3067545.5133 
-4438253.4969 2880922.0541 -37798.155111 -2612459.6647 1159383.6417 2357257.9354 -374419.62996 -323604.74947 7154827.3563 
4235788.0122 11253789.07 -7660388.1077 -14467973.115 404250.51239 202031.13243 785497.70782 -13555.548962 187969.37897 
-947515.96971 -777046.82881 3631172.627 5485281.6712 444695.76594 -3347059.1356 1236014.4501 -11332088.155 -6600364.1322 
-6551270.3237 -13611315.664 -484281.28673 4215712.0887 6119790.4305 12040824.917 3236585.4206 747873.11971 216442.37467 
-11270689.002 -3188553.5308 1984607.4227 -682169.91278 -1265492.3649 436882.88055 5003008.8316 -17649665.848 -4928140.5834 
2951058.2947 -2845046.8371 -636437.90047 1740352.8911 -906309.99611 -793706.0924 -1217018.0206 5651993.4536 -3194211.1256 
-624984.97715 -1761050.8739 -6691951.0889 4768591.9106 -5482239.232 -1963478.4592 -6159633.2713 -2440880.7511 -759460.33152 
7837332.0309 -262767.49574 430223.04568 513612.42356 -241555.97794 601697.19436 775708.98323 923724.36558 360744.01255 
36024.496471 858071.46168 257567.38425 731377.216 -78442.673298 2282820.3048 316208.63869 -503316.64599 -464318.50855 
-9323101.5153 -271496.74487 -3713969.5823 -2207420.5558 2830703.6668 1158394.9699 2402553.3663 376606.45295 3247057.3275 
-1559236.4192 -513802.95867 -1640082.7332 4083192.2969 2872769.5287 1178611.4126 -4482452.7423 1086372.9507 -311389.10311 
84666.643829 -520281.11091 -1123460.2382 379458.70649 -375942.55329 -1728587.9348 1648999.9327 1305913.0718 694269.98785 
503642.36691 -870980.77424 4382015.7669 871465.77853 417362.91692 -1004868.2587 -382900.52098 -639874.90618 -93902.968207 
-581526.74795 237043.38267 526650.52162 374342.43952 -260395.10158 -566436.3216 738752.66135 -1040662.0313 -9519.9704323 
102996.99283 -1705077.0519 -581459.86247 -228726.23942 -593010.78145 -46328.253263 786032.12611 573815.43356 705320.03915 
-531083.26699 -1586898.0432 832457.20309 -937017.17819 -291976.56654 -704891.77881 -195264.53264 155550.49664 -1368203.1913 
663541.40682 891680.26038 369142.72304 388122.9471 1092999.287 -16515.472639 -14515.944568 -463232.0319 -172135.92518 
-354844.18381 -864002.76257 -2057844.2396 -236931.18403 -324280.85632 -1056106.0433 -984764.08952 -49103.045925 454806.82263 
1652770.3369 70767.602444 -255166.86269 -548089.0729 6401659.5043 -363369.55876 4724765.2371 5595636.043 -6107110.8816 
-1914953.7923 -1949614.4838 -8970018.1991 -3422291.7117 4574771.845 -379523.12407 -799349.17658 -4173449.7471 -1022513.6228 
-1729023.9022 1592072.0468 1041313.381 476554.12483 156717.40437 860703.83426 545346.20403 -178642.48845 736182.71594 
1217845.4871 12893.892875 117333.58822 -64020.295628 -271394.29999 -578461.7006 -3793281.9823 -574484.54384 -291202.00071 
111777.64111 -271331.59199 -1024430.9536 -3239508.4541 -1351716.4479 -79620.508399 -547694.49687 30940.616644 -326473.34625 
170340.19054 -2947888.3719 -5108086.9453 -378269.80661 84794.576808 -596356.20094 -370568.548 -278289.41647 -230519.81044 
96085.593302 835509.12341 519812.06096 838843.2655 -1402779.9485 -2513743.0199 -115126.04931 319906.69516 -287388.79486 
-921056.78965 -534263.63658 -611442.49182 269958.40116 604683.49113 835481.06391 162359.48891 689737.54612 165378.0562 
8795860.0739 148769.77151 -4662583.4406 -16582697.661 -473556.59129 87058.024196 676023.42754 607427.47075 122155.01999 
211046.36356 -4554701.6996 -114463.30463 -424233.14594 439950.22181 -6610690.7517 -36518.557179 392467.58727 -70842.639135 
486453.90608 90552.551808 229993.41503 -2639103.2526 3995376.1625 2169370.0495 -9025903.8754 1962218.712 5995899.6901 
555900.12557 -30365.553844 464525.32826 931318.28065 -963663.10086 622109.63339 -718243.8393 -327071.29833 23318.917126 
614491.23447 -890817.48319 -393077.89222 1566857.0682 -351769.81141 -500599.83635 441615.95999 74950.65326 1929843.9869 
819660.02447 337408.50609 -177008.7362 49763.326495 -240347.08467 -2738814.5061 -4954474.3299 -12058045.009 1702951.1776 
646423.85843 329197.95391 2356378.7844 398552.15168 -555364.83802 2287281.7673 898267.67434 620461.05311 6327677.7284 
927527.8889 651502.9594 -467872.85199 813214.86917 4097433.0358 -3631772.8413 -132609.41407 3340915.0892 -276194.9723 
384675.80125 417218.12952 2495705.2014 -591609.48402 1267576.0115 -1547256.0011 -269999.69779 -341082.21724 89914.40518 
-262570.79889 2112723.5988 -1632640.2114 875890.36633 -221998.83561 5249435.522 27857.187927 -216730.35531 -269888.84154 
-9622.8128407 199078.20532 386488.46175 2015786.0255 -3371828.43 2611355.6994 2922642.31 2222002.0176 1501772.1563 
471972.18561 -17844.678125 601255.85995 177347.91344 -385047.18016 791774.04674 648567.28998 229729.42575 110696.38556 
-817778.89894 -866222.25621 270930.72278 63031.406787 -635206.19997 -766009.32205 392073.48257 787339.15501 629652.98873 
-1430378.9408 -45025.741626 -318971.99481 52117.319717 -154481.813 5323874.0825 5229289.597 12757568.74 7445179.3329 
-376324.9068 797441.78544 382121.29284 1171650.6041 633800.1973 1694477.5166 1302523.4903 -717772.58943 176114.12266 
282911.0258 1038752.8035 26670.144479 2044908.8546 132825.31013 794142.1874 702502.50821 360918.3311 -1947332.0743 
1465527.6058 97243.730349 1151679.5458 -1338909.4465 999430.84458 -3909196.4257 -1226447.0254 2676302.79 -24396386.704 
4128717.504 -7853160.7413 2046546.6775 -7904342.2983 479804.34471 3043662.9849 -11414610.827 1695217.9468 -4177988.221 
4513372.5744 741640.65867 860085.16126 4756.5180578 988412.52119 -2905507.515 2446599.0587 -425537.10035 -2911932.1664 
1400798.2126 2234327.0385 511544.30194 -616412.03423 1395849.0375 -1326270.3779 -4395594.2854 -4881367.463 -3528814.8686 
-4306333.9454 -370373.68688 3529040.1715 -631249.48708 -1451605.3078 2552459.9781 -1937817.331 -1935041.727 -50196.178189 
-2208888.1236 -124120.57868 -88335.644267 79103.027215 -3603292.4094 3604659.8562 3037346.3692 -923778.00438 285080.06779 
58722.493446 2175598.7891 1964330.442 -1079260.7812 697861.3476 990760.10401 466860.18145 510240.61224 -2245207.0253 
732563.66901 -786572.86862 -464415.83641 418627.06515 -1098748.6481 381213.95374 -219503.28949 -191096.82514 427153.4147 
255150.29278 -163191.70376 283128.42545 200387.37943 -629327.58309 -1549952.9926 -179956.5282 1070386.8171 73420.895474 
-329709.25926 1012300.9925 -918639.49335 -734019.40441 -93340.282285 363253.79246 -233574.46894 -156662.86493 -369958.36241 
120477.03581 734196.74799 57528.791429 4022802.4868 2260782.3124 -6222731.0403 350478.58872 -143302.44066 -851436.17066 
578741.6556 -21953.173607 -265887.90574 -254418.59917 -287921.57822 -208256.36432 -670446.92085 -339324.77683 -408616.45657 
-329382.37147 -208897.11191 -194340.91671 -143241.91329 106103.40157 928028.26162 682473.35735 -195429.48298 -403439.48172 
50265.758261 -1255644.3787 -561632.18544 933720.68074 -465427.05873 937936.73466 296833.58386 1404349.4676 169076.58735 
-292333.31418 1221166.4696 251778.72236 101709.88222 -470348.52449 -594978.02871 -10991.428967 97571.691402 -65653.308251 
135106.986 -468395.79989 1001158.7492 192999.46716 -463123.32614 -4029639.606 236797.98763 -5309065.4458 -252610.52312 
-838767.73527 -613.07703083 -245038.32471 -154511.62059 154782.23642 301964.66978 893659.02352 -2016118.6877 -1331113.405 
-938886.70716 943493.26594 -313099.47877 320519.47085 589845.08273 -225000.77098 106892.55726 60751.341458 414935.86581 
-4314942.7705 1086019.1083 1086763.8228 293975.65893 1215741.2013 379332.78239 497712.07289 152817.86555 -851938.16672 
73242.190323 4692361.2714 4188665.4985 389856.93072 -154694.71612 -3415502.2803 -84962.635437 -627486.56943 -374580.31729 
-845490.2338 -1435633.6575 -4612873.1974 -22918.9848 -3240162.9768 -321520.35839 534288.28364 -2708252.644 8084356.1065 
-256386.61531 -398055.95493 -1553306.8919 -390785.22052 117997.53249 7442861.3264 -2647991.7873 48185.498749 2757266.1552 
365320.81471 2958542.1952 -335684.36545 804165.70764 -519432.34571 1573322.8855 134838.37075 -720291.19305 -111764.7011 
-106958.94309 34095.313216 -322795.39986 543076.76279 2374355.0526 -3663275.9486 1907632.8297 889183.1987 -3352452.8338 
3238285.7544 1356512.6867 884053.09373 -5319204.6317 -4942421.4313 -3130265.3383 1718575.7483 -168563.07 1324632.014 
-50132.158046 994676.30928 381888.43931 598959.65931 585710.39019 -418464.09109 -35539.691374 -627133.9962 -20605.779517 
134175.95425 1049944.5898 310776.84634 839501.12673 84922.192476 -172430.70511 47639.50983 -132876.07955 -183591.61573 
-143586.37967 911922.96523 2247615.9423 -380107.47204 -85095.680995 -4054728.3808 2216354.243 345000.3292 121903.93791 
-394823.53719 28289.00022 74937.740464 161969.09802 -420235.43831 -805782.24944 736379.47674 27960.372634 -1395087.0188 
107346.69944 285697.69373 610915.79635 733544.70304 23362.866663 3516324.1278 1388984.1447 1083141.6351 2018770.1663 
47652.919099 628660.57286 571511.41304 -1128560.7199 1194544.9451 108295.54921 42658.964558 -270524.74541 -1445053.1458 
433259.47583 -997047.18656 408247.14023 -67163.92898 -73277.063845 -423362.92433 925732.11874 -2923457.4548 1236935.146 
-1527942.8259 4258104.7328 608800.35319 -327363.38493 -528157.06969 1111006.9399 -322576.18497 -224125.20761 -1242308.2272 
-540091.72059 246255.28059 -254243.04733 170509.27714 7881388.3334 -6352448.2708 -666088.55971 -4528.64254 -604614.73544 
270902.97461 4551315.2894 -556090.4943 948702.70828 1006947.6611 284834.79975 82258.069292 196186.52641 89904.170817 
52755.406955 -1127687.0353 -1259967.46 1147448.7423 -308337.44572 349593.97022 -98215.420947 54019.883503 -562085.39994 
297267.91238 -686284.06887 2679332.6455 309930.91605 -61370.741691 -718216.33463 -120808.30426 -320329.90553 -624798.99672 
-1806326.6326 -10371.906903 -53409.30797 217110.28639 57278.804214 -1344063.9819 -1271317.4062 -2758843.3006 -3730667.4124 
-9666696.4795 3627756.7203 -3572230.4899 1181364.3166 -330185.36502 4871729.6958 -1888485.6299 1278869.0866 1788346.6652 
2114121.8779 -2511148.0357 -682845.57032 127058.50048 124243.99427 509420.71506 378500.12382 2731698.2082 -3162518.2641 
308270.18812 -351965.5673 -68345.44576 132574.55673 -36927.016494 -232416.3443 5678362.3124 -7098142.2611 822408.60388 
-755632.52197 138871.64016 -209322.3433 -224268.78405 -403444.93856 -4694887.3963 902320.47245 -2153464.8929 1645353.1882 
-615646.58434 -6396674.6293 -760389.66597 95017.005791 -1930788.0624 -844663.01384 10413800.638 2335076.7983 -5640418.1749 
-1000962.2377 269899.75475 4462175.2058 246001.93225 -343112.79327 3178962.4341 1161973.313 -405534.05267 -192778.9176 
157391.56203 567433.80772 -1699780.1084 433460.97235 462127.79343 1010727.8286 633417.54671 -192082.31307 -52076.758573 
3358266.7182 2471947.1734 -101478.14905 2981624.1672 -8726831.12 2178170.001 843275.2365 -4921214.8589 1507257.2393 
-5390092.9341 6703853.6042 2497389.4757 1241045.8495 -603129.30794 153262.5043 361649.31231 173442.34862 -247600.77318 
-354700.46161 12576630.005 -3769364.9947 -851416.23684 4186490.5661 -372800.65807 -43311.173217 1088114.258 3966560.7541 
-11550819.24 132998.87399 -8787055.1367 -450374.51713 796195.96237 2507851.6216 1505517.0945 357404.16593 -351957.99129 
-351681.99448 -97232.461709 14345.575324 946871.73399 -152947.78072 -2630296.1734 -202722.16116 2650584.2427 
Stress%20zz%20component 1 1484 double
-169354110.23 -169728023.18 128046873.66 129214745.46 165037.83501 48076.277318 -168958.27981 -145335.15257 21966547.221 
-19458522.763 55931305.271 -10879909.49 12270949.52 15447471.024 -5409641.6031 -8049361.463 -2392813.8729 -1357798.4572 
-303460680.5 198781971.25 -61058713.313 -3430437.6754 19657337.709 4370985.0151 -7391084.2027 6380452.4758 70010069.503 
-163785211.56 -55722666.468 13022267.066 14036284.376 -455394.16816 -1656838.7576 39147821.841 120570189.09 -70803189.822 
-2945210.5617 14460632.917 8216331.7871 -7227245.3784 11120517.148 47236469.094 -160654871.79 -55513171.608 12996483.64 
16851056.206 -1572843.7525 -2464804.7433 45684385.963 128028876.61 -361231.32468 -1224592.085 -519076.36711 -127775.29933 
11108751.681 2535923.3218 -17243575.236 17105053.567 26282.520662 -310564.11883 136816.98625 3136389.9661 6669195.1049 
-9881812.3444 5812249.2317 21035982.058 -567071.96705 -681709.94424 -9393850.4722 21854836.469 -1827052.7016 -14549127.52 
18308212.028 -48666.145617 -501456.54818 -768538.43265 2644127.4821 10336218.135 -12559731.411 6937052.286 17364420.136 
959851.93567 -10381036.859 3212899.6286 -143724.18653 -61775.658701 -2429457.654 -1320099.0879 25569.86454 -4153096.0252 
1248505.3865 518892.18258 502628.85054 -2966701.862 -1323138.684 -705422.51059 -427218.52442 -5495991.3428 2934891.4674 
13639.319826 197529.30475 -1122369.8313 -2034333.6476 124173.08365 -4667883.1246 1802303.4363 133981.66858 431848.54647 
-2312930.1631 -1052036.3071 -697321.13007 -681615.13347 3547969.4921 1569674.7421 1990751.0154 -35558227.486 4135564.7895 
6620304.1079 29328070.121 -25982627.008 1113976.1735 10162803.429 6027861.9306 -21248474.334 2512403.8429 458016.30984 
-26271151.019 3378706.5666 538975.56188 -1728685.0789 19003396.6 11089385.313 -5045187.4601 4635963.4575 -34906407.005 
8876819.1193 6524338.8583 11226606.869 -24880955.851 5511162.9333 65268343.71 -16462355.974 -5802178.4027 584841.02392 
100981.50407 -12494312.921 3474468.0368 -3739058.738 562265.29175 19155967.738 529887.84423 101183.92365 -1017985.2205 
-1066957.6116 1310170.048 986706.70701 103198.96128 -207252.68633 415092.9229 -282967.19151 -844396.62666 134712.91013 
1004492.3934 363222.82226 267078.72128 387988.80419 -105194.17021 14298.991055 -1834636.0163 -1408875.3072 1410182.8668 
136313.04791 -118537.96459 -237832.23654 -239525.44796 -547699.89769 -274120.31629 505543.86778 132528.04906 307689.25721 
189598.9554 -426711.68317 -1238358.1591 217783.99392 -638799.8914 78056.513942 -1546105.4223 -47335967.695 -19729820.123 
-33860379.492 -97074008.324 -63105877.53 105298.32937 678585.70161 405400.21995 126197.54293 1022161.1898 1622790.3183 
1051483.5183 10935919.338 -43418227.405 3747014.7085 -10065116.161 58383652.773 -7148564.4076 9910908.6795 -3789167.5818 
3695653.0086 304505.57479 3952754.8353 8172381.2084 -42263.253938 -557711.09312 -3184743.7813 3222370.3169 -1289221.3658 
-251759.13034 615232.902 5589501.3126 2144219.6461 4874765.5398 1867809.2613 3472486.4131 2163719.2782 -58882.252074 
-158243.22535 -3808425.3052 -5769.4024285 225271.28543 -297776.52219 -18209654.751 29870141.473 8044427.0097 -3399215.5653 
5303055.1063 4837122.1552 4457467.5264 2184335.8167 3623703.2811 26172324.813 18483165.542 13962706.718 12206165.702 
-2756609.733 1083740.6476 49976821.457 29866259.1 -2610637.8829 -2397766.5145 -18132702.025 -34273543.161 7599576.492 
12918726.765 -111705563.34 -109464825.66 -49397135.414 -89934008.15 104551426.24 103453027.62 90143415.99 66167080.596 
-20391737.046 -77049963.788 -89969542.997 -53387330.578 15579159.633 5110580.1377 -6543338.8862 -15309199.341 5964636.1298 
7593082.2237 18556576.81 18768801.572 14294955.862 16194406.108 -6787053.6218 2604077.258 7216368.2364 3430376.1511 
11197513.887 1389183.6811 -6251333.9663 -7525881.499 -6019999.9156 -6227373.486 53825368.57 15525720.008 11559335.175 
22615482.181 3514856.2634 69275091.516 42155802.495 27580352.964 917621.48026 -7150052.2455 14018633.942 -52780.338839 
-612708.52021 70459.755164 4049000.2573 -55454616.395 -53300288.092 37698816.088 38989773.544 20111.923934 50778.89042 
-2015562.4621 -1285283.2248 -656307.48646 -1555150.6535 -946742.68042 -511410.70255 217232.61123 2263362.6862 -812363.10483 
-1284596.665 1608619.1505 13989638.483 -2311396.0652 -3099026.9885 -1583459.3286 -8601062.8671 16774239.593 22345560.366 
17585182.523 28070632.631 19842356.997 -16571436.879 -9382204.4512 2722286.7069 -7973123.079 12644953.903 14930407.247 
-39189131.388 -11348301.178 -5680093.5237 -24295465.315 -6593798.218 13132498.53 530209.08456 277859.4933 -221221.88263 
36418.180717 -6108803.2767 1925077.2251 2482083.4562 467109.36652 48851331.52 49034539.443 -14415776.462 -20540506.352 
196434.28955 12177.725815 997387.5869 1110939.9107 973313.54237 4365022.3507 2060527.1317 -2834897.1152 3683235.557 
905143.90344 2842174.7059 3523085.0763 7247430.9885 1553741.459 -262272.31928 11141.768749 1435835.8124 1060113.3035 
-1691331.6144 -2628458.7706 886098.38261 -1188165.0254 597274.5365 231376.3026 -5034326.0524 -3773857.7105 -716759.41602 
-3480265.0223 -1974002.8551 -249558.28004 -990822.39778 -2936426.4612 -1414932.574 6065.8520089 -631201.38468 -2303667.5828 
1552670.6064 -2332786.0218 -10866931.709 11006555.634 701008.61508 -9330763.7011 1202098.1557 -3332460.3238 -1746473.571 
1796867.9131 1920079.3285 1359626.8765 -3262924.3704 8590031.112 -11776603.669 -55065358.606 3225220.917 -7283152.4538 
-4576215.7744 11560941.457 -3353631.7517 -12615232.1 9029049.1556 15341396.82 -4360160.9765 3161536.6586 7996957.0576 
3586854.3817 -1770747.881 1674546.8247 -3337413.1265 1259796.8462 3069698.4157 -1911788.4355 -211834.34382 -3021459.5973 
5818523.4125 43381.048625 1529879.7497 509233.34932 -5765737.1965 14309294.689 -1316394.9413 -15518119.504 -4018826.2467 
650080.57594 3992261.6663 -8427486.7739 -1504506.5548 -955952.18413 1682148.5494 3910588.3618 3337293.2069 -14407799.234 
-876177.16393 1739980.5086 -676657.39059 84686.455032 -300121.11095 3331053.2042 -1141081.8524 -1173325.2204 788569.325 
-1918563.8234 -2928226.2496 -2635557.8496 964482.52732 -2390110.7914 -1733934.5772 1142427.3636 1130618.1326 1884181.8083 
-82409.810913 1367738.809 -5547849.083 10238943.626 1828097.9948 -38547432.596 -511395.90269 -3338058.9029 15818031.761 
-1267598.1025 -3362186.0413 -410977.23305 1077567.9499 -5243456.6396 -5134375.9931 18700711.07 -40186095.108 -21068058.912 
19393132.877 5260217.9997 -11647246.387 10238686.288 -10295344.45 4236411.8939 3538543.2369 -4857737.2851 1784418.2263 
-993462.98436 3143119.8704 -356314.08475 268744.65858 -1540910.3138 -2633406.9679 3295546.5693 -1172191.7651 4841458.5828 
-2829533.037 -27142.863674 422590.36324 -1841444.3511 8930040.3213 -4856426.0136 -5718014.0343 -1255540.7865 -5597782.9154 
10752829.244 13997719.107 -5517296.5731 -3703058.992 11010227.112 11289789.497 -1041699.1879 2216369.4354 -37562783.232 
-2562905.1728 -1961600.4589 -770367.07844 1522291.5688 -1421414.9092 -769819.72599 1540619.7147 -1134429.133 -2977766.6549 
-1289520.3112 -8867959.5699 -1600257.4035 4926430.4857 162333.44888 5653839.2069 -1883017.0199 10295384.137 -304685.78297 
255885.57265 195694.45194 211625.87432 413598.48539 105302.2229 -529676.08256 -1008429.2442 -95949.218885 -55039.921469 
-273053.95192 -184722.61719 104710.70149 53498.263594 1820138.978 1701510.5046 660987.0989 661417.51299 399548.01063 
-70240.660202 -11666.744073 -2597248.1148 488898.01911 -150694.55941 -3881845.3046 -1877933.4792 -1618110.7146 -1216611.9962 
856788.39 -1009197.6026 1444898.0739 -105199.48737 -1813999.8148 -711838.90853 -2992403.915 308423.68205 1144505.8104 
-313756.6004 1602002.4445 -678068.50545 359236.39129 633655.42967 1049892.2385 1842611.9142 1064017.2531 141136.01407 
680442.77356 3248260.5549 -47571.73048 -4519896.3905 -1264585.2532 718534.99467 -10411862.054 18131844.115 -2786929.9261 
-12048223.203 12864399.203 1222636.655 -513873.73422 -1527226.8957 -4469612.972 -8637368.781 -195092.55505 2245354.0577 
50815573.51 6350918.7918 -12935534.215 18411095.947 12575419.11 310314.43984 436246.76545 -653382.70768 -1205665.1583 
1542604.9629 3630194.9375 -2241670.5907 -10588179.863 -564505.24777 -3808973.8012 1805517.4488 -1041354.4173 -7509654.0713 
1449572.7251 9011741.5905 -2039763.3133 -5642110.2146 7217006.2443 8946252.1265 -12046112.679 910506.45527 -2612977.3688 
5665080.9908 -2290216.5418 -3436460.6298 -13544652.724 -4653359.9197 -18629018.902 40895256.823 36937881.773 -25894244.582 
21651150.745 -23740516.206 -314364.34487 -2486073.0503 -27692.052005 -113133.41479 -1152051.6295 -4545091.745 -1549213.8059 
5290341.1876 5212395.4207 9033897.081 5494805.0995 -10599914.105 -8769600.8667 -3595003.3404 15499353.022 187858.91326 
-3862688.6676 2761244.5899 -2002277.3213 3762436.7263 6927131.6308 1107813.589 237177.42893 2126097.4283 -3481047.0272 
-9001657.5841 11788587.912 -462714.0015 260367.60712 -1797155.8209 -908793.0759 7148311.5672 499277.26314 -32478360.09 
1880510.7197 -30711303.832 1827790.9823 1238913.6023 4404404.3651 872187.13275 323205.94862 -1013312.0273 632432.1142 
-1179259.2159 552228.34719 2749326.9639 -9899466.1804 -4176397.6946 -1371876.1292 2936040.8685 -10237789.164 1527546.4618 
2489417.8504 -852705.38279 10410991.02 -1556049.7986 583763.56062 4205894.5834 180155.48496 -7611167.4733 -1933481.7515 
7992768.451 -4105369.8218 -12679281.292 -1989601.8904 89988.638305 -9060013.3437 23064206.094 6289875.9395 -13274591.104 
-5858241.9512 13359794.956 226199.78801 1169355.7365 -1300541.9902 -1941480.906 -1505380.0599 -1436147.4627 -1698554.4333 
1771788.6669 5758933.4645 9211767.5057 -20219225.845 8331408.4434 12876030.884 -15635285.352 -838613.92499 37393.975119 
2762314.9613 -397817.17249 336122.21521 627475.39625 -672394.52414 381692.80417 221624.6408 -2695044.7178 -230876.71901 
666932.63843 221147.81535 911689.4285 512107.92292 -192686.59982 -8275519.9588 18003.857249 -250699.48774 -221519.94165 
-12458726.317 -211564.39966 -33915885.54 10003196.244 -13221716.243 2843196.1062 -718124.55635 -922201.89405 -5916325.978 
-2003993.5545 -6233129.5911 -1910963.5246 8624762.6044 -530821.7094 260328.46969 -1583037.6886 -201982.27014 -2076143.087 
551671.3238 28075.258286 -173402.66096 1203892.8275 2110794.4513 1093708.4028 -72758.74593 -1035958.4136 -1612464.1189 
1245451.0346 1151900.3753 -3108810.0338 689990.25871 653114.48004 -1709120.1051 -595143.9806 -890037.15831 -151226.18681 
953341.09732 -1251235.6593 119477.63662 1418771.537 133746.4321 -236586.54616 1419379.4937 9090893.9114 1400076.5784 
2963050.7837 -1123246.3666 638898.08186 226181.28579 -942858.96939 -983750.43937 -443411.36505 2231478.7292 367848.27575 
-100193.59886 332797.33588 -641560.96866 -761314.40488 476041.33076 -426210.16038 1388111.7325 758877.95042 -202341.87861 
-13798.101208 -245245.84408 -750555.97388 52788.073878 1276613.4531 218897.59424 -473811.93484 514895.6269 -163872.33568 
-1984606.9499 -562128.54099 186521.04051 100702.0836 686378.35602 -1956663.0766 955081.27095 759675.41068 -631689.91342 
-3113488.7974 -41460.9687 -180669.93151 12320.431275 -4550719.0964 609336.92434 9973951.5335 -6053190.755 -7243620.5856 
411675.11439 2864373.8986 5355030.1136 -1764636.8492 -5427450.2502 -2700600.5149 -2773713.0666 5655447.6455 -1262122.6472 
-754371.00293 -119344.15618 -894885.91788 -1259738.089 2657505.6279 -1166122.639 -684880.8163 540919.17089 1140975.1924 
1669991.4143 -766769.99799 -154258.51278 -1544249.6223 -332250.92211 1216252.2418 -1631975.728 842159.70884 530852.80555 
18892.878189 -313137.31984 1853353.7866 -5541589.6271 -3654955.9271 -11847297.617 -764924.44293 114485.48864 122812.58036 
-67183.035905 1820753.0865 -4366018.5554 990261.79094 71816.66502 -716750.72553 -287951.49067 -9112.999698 -179617.27197 
-143459.49706 471206.75778 -196140.05351 283522.04538 483814.78183 -2150358.4607 -773787.50661 929741.12576 340902.79525 
263282.85167 441784.66732 -2195296.7745 438439.20431 -858916.27358 -1379198.4909 534689.91122 430823.53653 -284201.3598 
129399296.33 -22886476.978 -28466.789239 -25249469.692 -7144609.494 -26077.504744 2143556.7372 813304.97428 -303451.20525 
-753820.11607 -8543240.271 -4933751.8392 426365.20283 461885.85775 571133.51437 994443.7632 118803.74359 1551085.1137 
2137785.6058 -126217.66629 -74009.283689 4991654.6177 -1723534.9379 -9097761.6193 12082899.893 -13488367.984 -4774590.8045 
61384.282592 -377230.79459 527376.90176 1462715.5804 194205.51156 -1205964.8147 -25321.920427 961311.1138 139063.00213 
2106673.0681 -790793.27987 -402279.86641 463811.73763 -966416.04357 -715662.61355 959139.47954 1568093.4569 2242547.4182 
317426.95873 -763638.6094 -287458.77904 125048.4066 466800.19367 -3143700.8455 2131729.9579 2068416.3991 -471710.33623 
1123394.6879 -2360478.7312 2175505.6913 -386484.04312 1317154.1333 1448610.5739 5518614.6675 -1198643.0908 -7585292.5019 
784595.64359 992211.71949 266347.18598 298069.93774 -4270454.0648 -16290736.365 -204741.03782 -1773882.8115 6568569.7894 
1542685.5782 -400753.5104 2085687.454 5279517.6275 3789425.5204 -102912.14184 -365837.7447 341368.69117 -70946.725491 
-154438.70836 -1225456.5062 -1701732.2284 1534452.2714 -393335.61367 814496.28665 -678465.46726 -865817.08697 97021.380662 
-655946.75558 -223032.64863 -529835.0735 -673520.19296 14374143.458 -7189980.5502 -1957553.9629 3891906.0174 128034.64108 
-489270.86113 37292.199549 1623448.7888 -452333.0323 673282.58153 -2272166.747 -241091.42419 808406.48112 422227.06517 
-110738.25435 -2421772.3116 -2306353.3376 832993.61698 -563310.9932 1005226.9696 -1800399.1311 1354725.7346 523372.69504 
-2006760.7222 53462.100441 -321414.74772 -1534805.1808 1154225.9076 8286648.9077 2454666.5553 2138328.4568 -10631907.074 
593056.9025 1563035.3312 -1190540.0919 198182.47717 -895419.22537 -3625607.5626 -867003.17034 361165.10976 -2244543.1316 
-10111.391164 -254059.73161 -135323.026 -2590594.5698 34170.992517 -1070284.9753 784378.67213 -856354.58374 4475241.0756 
-1076728.9862 -1134105.9078 2807358.6901 573447.89386 -1117906.2683 -24125765.641 -54363739.19 6661649.1744 -18456772.802 
-80036377.011 -5582628.0797 1525143.6411 675554.1885 -3706200.1849 -9316945.3285 -11500781.594 -5572289.1151 -2505779.9679 
2594116.0229 7721323.4008 -13933040.665 -465845.50628 -2574701.1369 -1440963.6849 -3353320.7151 -284940.41293 -16728822.761 
-10757375.788 9407168.3728 -911973.47123 11299216.594 5025690.0656 12787996.879 3946616.5198 5834081.7488 2392690.0812 
5760430.5374 -9561519.7628 11412873.78 915957.45558 1054360.886 -1609642.4112 -38833148.516 3220166.9837 -781294.04653 
1222333.2284 -351928.38133 591023.52417 -172019.15868 -15741466.589 -37436675.376 -6140746.3025 881883.8044 77619.882311 
-1794555.9984 10502765.042 3834657.4133 681128.28391 1643768.0968 1221488.9149 -2250073.3928 980671.36601 -349676.57487 
1886752.7479 341700.01694 -132079.3421 833558.86367 1781920.3392 23186.24323 130275.14315 1374587.5157 655837.65763 
42633.752141 881400.43378 -1441499.9099 -87649.793509 1222248.5798 603999.71306 2349181.4552 -498083.55543 -845421.15563 
456459.00037 -815822.96112 1101520.338 757826.21361 -1097876.6422 1498103.0256 -548934.69122 -2195122.4496 -356462.85963 
896494.24915 16847620.79 7538738.4417 10870392.957 5084226.0096 11446782.449 -1460636.676 -734017.8582 -769792.75322 
-1722328.2174 153391.74969 855768.18257 1507252.1826 -1467885.6186 79176.246024 1276198.0828 499002.93577 -154855.73496 
-819793.97219 -225077.44109 61924.888795 -15242.825322 -14823.153916 1201375.0604 -112488.69132 2071754.7878 231652.56214 
-244015.03373 673128.68535 491456.01054 4464711.2776 -379471.53037 -513099.7828 -894277.40357 222527.34201 714083.9272 
-3483896.0797 55981.792477 873762.05633 128292.4352 266693.33294 -230013.62259 -1803962.7713 -902731.62381 -784566.54948 
1253075.9875 725348.36911 1766605.4046 -4930785.9926 2965306.9331 -3373878.4514 -3432988.1269 -5478340.27 369639.23291 
1487165.3316 -765983.65508 -1608073.5249 -1163753.0583 -312503.36523 -838758.53602 13374732.531 7654348.0973 2871131.1784 
17637.583327 5139946.4409 -819913.64945 498453.47146 889726.63725 1129.928893 -322581.5103 -306482.74163 357097.39971 
461215.43141 -13320490.994 1452324.5549 -661712.07611 2404563.2524 664619.24513 -593845.79285 -250074.02547 -21838.835517 
1374218.6075 8956035.9144 4069029.9277 -1390866.3705 1029663.2277 18529597.902 -1849372.2492 315049.18285 -90905.287575 
217829.63242 860492.66735 3660346.2653 -6624697.066 -2399090.9258 -4049204.2336 -411331.59631 -13416748.457 -12042439.005 
-304866.1134 517606.46733 -7107780.7407 518531.99581 738143.74139 3161228.9673 227378.99557 -50875.583403 -8670286.9126 
793388.12712 753658.05321 -405547.57288 -346811.26601 -2352970.8406 -318456.69439 2796432.0166 790997.45927 589389.03853 
1310656.1658 -1035877.2479 -46635.796256 3325178.7342 -2550456.8036 1936081.5922 8369173.6889 -2860421.0042 18267330.269 
14022747.065 -14321771.682 -601214.7467 2331114.5725 11555921.419 18303503.082 -13868231.544 374086.90066 31679549.809 
-304966.38549 4018044.8713 -724936.4429 141022.16758 1728325.5711 83377.743808 853875.23957 -490235.68071 -738886.69507 
564428.60391 480141.43054 -1405894.4487 -87595.659348 -512398.86177 511808.20233 29058.395487 -636177.02313 1061441.8682 
-1241952.7539 -2207783.6387 625935.28107 7913704.145 4096823.375 -14659704.919 -10541544.094 4100964.9269 -705242.23998 
-403413.78488 -372884.90845 -604430.10778 254456.11467 790376.55417 262124.27781 869311.95186 68356.281062 -4829890.4002 
-7552655.2951 -2110322.5375 3059930.6321 -948862.7084 -61437.776357 -1462537.6881 -1259904.479 2332156.3037 1762998.3511 
-644830.75025 1184656.857 -256126.95045 1344002.8572 -175058.4011 710489.45084 524356.60527 967548.97377 -2907923.5805 
638254.99308 611309.22959 422929.78404 469670.26966 330029.99042 -125547.31412 -7152116.0106 8771093.9752 -1949493.2046 
-14480190.368 -8767173.9594 -8989192.2176 1360556.3904 -476432.06493 -121688.15113 3019140.2891 -40703.318448 -860026.06796 
-1768083.5826 935703.82406 -436547.43422 313510.30877 -13044402.268 9975937.928 184136.55732 -176486.37043 4126.8732454 
173336.42742 -14749153.803 40594.952545 -4189465.8443 330953.34805 83460.552932 -1037293.2619 254085.47746 -5562528.4401 
-689219.63377 2384254.4903 1937584.7592 -461206.12328 -415698.14184 1905717.4499 556190.578 -1089554.675 -1023654.381 
9181528.1127 4214042.1069 -1396715.9261 366244.38751 166619.60039 -1309570.3069 -29737.174324 398228.97336 -624619.15891 
3988501.5742 59123.315567 -956969.99443 1291201.6778 13456228.121 -1537224.2733 4329478.5077 -2006266.12 2839320.6588 
7508338.6727 -12973274.279 -14421431.328 -5837005.4332 2277164.3157 -2694737.0148 10478493.674 1941612.4348 2123148.2713 
334756.78121 -5475482.8708 -6067557.7094 551908.90335 583001.19921 830630.4832 -872582.88793 -10286936.044 -7993483.6541 
2118161.2013 3315581.9596 -473458.88255 -412648.25088 -1863905.7089 195803.68092 -4742822.1079 -5380583.6998 1091666.0485 
1186805.6174 -762875.62035 -595221.50782 -500947.49233 349803.87956 4667860.6899 15846225.358 20937440.978 -4883034.5653 
-2648754.1942 -5176006.1924 -1295418.4383 -1140048.1217 -1281032.1782 -2204038.5506 51552087.348 -20080297.714 2110028.8827 
3026185.606 -901176.40768 -4205384.9376 277636.83027 -132290.90081 -1470066.6317 -575183.88772 -186790.32173 1408162.9721 
341566.92527 244915.20142 134971.03685 249065.9188 224177.4525 1041495.908 -190427.56402 499684.49062 -512548.94918 
12040491.058 1571260.0195 -566222.58543 -3308284.2591 -20534137.877 294726.31829 5948982.0219 12784398.262 -3623900.0315 
-40345454.66 2563188.9175 8563527.3429 16455052.328 -685557.24817 98546.237848 -4613684.1482 -291616.94438 1311974.8739 
648884.74547 -35067306.041 -4372956.6066 -27388429.726 -10853537.62 -1615518.3088 -10917.688378 -1805182.0477 40956159.156 
-19559089.68 -266848.67373 7796652.514 2423472.8275 5360077.4543 -5460042.155 -1734535.7489 -213472.9606 2969246.5109 
-7757813.1896 -686508.42168 1433384.4623 2936261.6283 -1742671.6443 -6381570.8819 1105745.1091 -1234834.7104 
Equivalent%20Plastic%20Strain 1 1484 double
0.010919591794 0.010188920243 0.0032698959917 0.0036189455207 0 0 0 0 0.09513256216 
0.011587930885 0.098081450398 0.017629391123 -0.00074339521333 -0.0011049889875 -4.7577359439e-05 0.004488035981 -0.00013748591033 0.00094637519034 
0.0088474383218 0.0022930583793 -0.0014150755543 0 0 0 0 0 -6.321028169e-06 
0.00093604162147 0 0 0 0 0 0 -3.1605140845e-05 -0.00074683635387 
0 0 0 0 0 0 0.00078842993002 0 0 
0 0 0 0 0 0 0 0 -0.00027413222367 
0.012477280494 -0.0065484647868 0.011682383878 0.018962164495 0 0 0 0.0081168454975 0.0070422619867 
-0.00021623549813 0.022821822382 0.019980478229 0 0 -0.00011421508287 0.012538850782 -0.0049715786511 0.012771133032 
0.021604023658 0 0 0 0.0069756381837 0.0079087049292 0.00075077852536 0.021477118722 0.021049702493 
0 0.0030527847952 0.0019986849128 0.00010195049406 0 0 0 0 0.0068449672238 
0.0024120189918 0.0014489103566 0 0 0 0 0 0.0022081020606 0.0028152400954 
7.0573538355e-07 0 0 0 0 0.0065558266138 0.0026760270766 0.0015938149006 0 
0 0 0 0 0.0059928977405 0.0017454960931 0.020126515455 0.012035062141 0 
0.010688917915 0.045355590695 0.007675157304 -0.00054382195218 0.086054287265 0 0.0042712330639 -0.00022611372018 0 
0.00018275111721 0.0024767246722 0 0 0.0022896806211 0.0066194226864 0.0013171024888 0.019443207011 0.01139674662 
0.00020136599675 0.011279196941 0.042291566821 0.0075693415269 -0.00084155820381 0.077295652901 0.00058767102068 0.0055603505164 -0.0016824387858 
0 0.0001495462709 0.0042313544957 0 0 0.0025683920225 0 0 0 
0 0 0 0 0 0 0 0 0 
0 0 0 0 0 0 0 0 0 
0 0 0 0 0 0 0 0 0 
0 0 0 0 0 0 0 0.019287715913 -0.0031682871993 
0.0048503962175 0.022454889051 0.040314364359 0 0 0 0 0 0 
0 0.020939485973 0.0095517202391 0.0065505642231 0.025265740688 0.035298159444 0.0079961809598 0.019449021592 0.00087191400875 
0 0 0 -9.1559022542e-05 0 0 0.00062996311231 0 0 
0 0.0089519243798 0.01729747345 0.0017997139311 0 0 0 0 0 
0 0 0 0 0 0.015091204025 0.10191223922 0.02512504795 0.0093430265435 
0.016727238168 0.02031538954 0.0013762269785 0.027704258694 0.0040832617094 0.014930524855 0.020974358873 0.00051428734459 -0.00055365484523 
0 0.0029182590863 -0.0017576426971 0 0 0 -0.0030672787532 0 0 
0 0.0013655415479 0.0010082287631 -0.0017465693274 -0.0020220714407 -0.00028074846671 -0.00036703058933 -1.5802570423e-05 0 
0 0 -0.00068208669032 0 0 0 0 0 0 
0 0 0 0 0 0 0 0 0 
0 0 0 0 0 0 0 0 0 
0 0 0 0 0.027756975802 -0.0087339070783 0.024335141137 0.0077835866604 0 
0 0 0.0069605494296 0.020061043818 0.020550984538 0.022699295422 0.02425522967 0 0 
0 0 0 0 0 0 0 0 0 
0 0 0.013015633626 0.0029511081946 -0.00033735905488 0 0.003035917173 0.0030557230279 0.010439662113 
0.014092688564 0.012944838372 0.010490321418 0.00075838413509 -0.0079753495124 -0.0062231104888 -0.0065264522552 0.0037884036545 0.021545900839 
0.024557496609 0.012985326034 0.0020444645611 0.022770483689 0.018958369571 0.021837553431 0 0 0 
0 0.010646194104 0.0014085325495 0.002381979503 0 0.0076020422027 0.0078694829183 0.0070499666565 0.0066901406216 
0 0 0 0 0.0019985832166 0.0029668912473 0.0019742632602 0.0018046603451 0.0024062784816 
0.00066207675544 0.0026098128646 0.0016971956144 0.0028709874329 0 0 -3.7033345642e-05 0.0010374821985 0 
0 0 0 0 0 0 0 0 0 
0 0 0 0 0 0 0 0 1.0415030546e-05 
0 0 0 -0.00011694464998 -0.00021759344546 -0.003170748724 0 0 0 
0 -8.4990401363e-05 0 -0.0011876798721 0.0028610856285 2.7581110984e-05 0.0029069086005 0.04716251264 0.0035427439319 
0.0028483351797 -0.00081573292827 -0.0002408819702 -0.00044439756366 0 0.00021958238449 0 0 -5.261719874e-05 
0 0 0 0 0 0 0 0 0 
0 0 0 0 0 0 0 0 0 
0 0 0 0.00015691576428 0.0051681807066 -5.9245532284e-05 0.00055803670965 -0.00026980534047 -0.00092233070644 
0 0 0 0 0 0 0 0 0 
0 0 0 1.2024241264e-05 0 0 0 0 -9.6826424856e-06 
0 -8.3637422175e-06 0 0 -0.00093677449377 -0.0045819845313 0 0 -6.48918586e-05 
0 -1.9926705309e-06 0 -0.0019809210784 0.0023803207154 0 0.046535016997 0.0019216488913 0.0030370464281 
-0.0021017579856 0.0042761930705 -0.0016012813957 0 0 0 0 0 0 
0 0 0 0 0 0 0 0 0 
0 0 0 0 0 0 0 0 0.0010390006286 
-5.6117588924e-05 -0.00016305043628 0 0 -0.0012462732492 0.0045176041699 1.8259077124e-05 -9.299129144e-06 -0.0027423979792 
0 0 0 0 0 0 0 0 0 
0 0.00019142215806 0.00015327592979 -2.9273097761e-05 0 -1.1878132802e-05 0 0 0 
0 0 0 0 0 0 0 0 0 
0 0 0 0 0 0 0 0 0 
0 0 0 0 0 0 0 0 0 
0 0 0 0 0 0 0 0 0 
0 0 0 0 0 0 0 0 0 
0 -7.6616126156e-05 0 0.049159804197 -0.00092435342194 0 0.055947390878 -0.00077531090959 -0.0017082815176 
0.0013365715913 0.0041609427115 0 0.013256783682 0 0.035018748402 0.013694715777 0 0.051372661492 
0.073059696928 0.016890412123 0.0052105395367 -0.00092634324808 0 0 0 0 0 
0 0 -0.0011064792075 0.0039659492396 0 0 0 0.0028666191709 -0.0019402496688 
0.00017457090095 0.0031620796477 0.0068050288126 0.01883060285 0.02759395873 0.031918389041 0.0089675050716 0.0096282384007 0.0049114785077 
0.00087378527778 -0.00078484315197 0.018990648107 0.027964748104 0.009815411221 0.026752985209 0.056420503005 0.005515878787 0.012455076453 
0.0015247687054 0.021889556791 0 0 0 0 0 0 0 
0 -0.00032251758445 -0.00034838418121 0.024988798687 0.021598592348 0.057463357051 0.0045008582556 0.00073530332652 0 
0.044462808622 -0.0015644890286 0 0.049261741144 -0.0019270493403 0 0.05869210953 -0.0017160680623 -0.0014912832731 
0.0014705653141 -0.00029256647978 0 0.011866221363 0 0.034430753576 0.016532003602 0 0.067160075259 
0.048101390612 0.014274711442 -0.0024773279489 0.0058940859661 0 0 0 0 0 
0 0 0.0035342390537 -0.00097040912724 0 0 0 -0.0024520586025 0.0033530978774 
-0.00038681615273 0.0059071269077 0.0028336166127 0.028656531404 0.01922839186 0.031732407647 0.010583668955 0.0076457685659 0.002492368671 
0.0017206987749 -0.00098724502066 0.028706231815 0.018832957672 0.010048787301 0.027111252659 0.056466506527 0.016363063011 0.010861313011 
0.00011102649126 0.017778066697 0 0 0 0 0 0 4.4359723094e-05 
0 0 -2.9995261591e-05 0.060669149814 0.022490675149 0.023291187038 0.0021512264047 -0.0027390215165 0 
0.043152542229 0 0 0 -0.00013004622998 0 0 -8.8179856408e-05 0 
0 -0.0004106296488 0 0 0 0.00371499008 0 0 0 
0.0021281389532 0 0.011593958559 0.00010774704059 0.0076755737179 0 0 -0.00016652075804 0.00084459158151 
0 0 0 0 0.0005218316524 0.00052930631951 -0.00024880375173 0.00030655451231 -0.0001635341575 
0 0 0 0 0 0 0 0 0 
0 0 0 0 0 0 0 0 0 
0 0 0 0 0 0 0 0.00016622413845 0 
0 0 0 0 0 0 0 0 0 
0 0 0 0 0 0 0 0 0 
0 0 0 0 0 0 0 0 -0.00018262078009 
-4.1579333213e-05 0 -0.00039335918976 0 0 -0.00075315830931 0 0 0 
0.0011320616195 0 0 0 0.0013260122155 0 -0.0010528549396 0.010604315968 0.0061117513338 
0 0 0.0019274837951 -0.00034371477584 0 0 0 0 0.0006212454405 
0.00043937066391 -0.00013748094982 -0.00017529688988 0.00065823374751 -0.00026061506113 0 0 0 0 
0 0 0 0 0 0 0 0 0 
0 0 0 0 8.3958888779e-05 0 0 0 0 
0 0 -7.1082745361e-05 0 0 0 0 0 0 
0 0 0 0 0 -0.00012473799964 0 0 0 
0 0 0 0 0 0 0 0 0 
0.080844151602 0.0038669919283 -0.00054382195218 0.0066465973455 -7.4823451899e-05 -0.00032899019451 0 0 0 
0 0.00024590991789 -0.00080634364411 0 0 0.0033620057834 0 0 0 
0 0 0 -0.00062142985683 0.0016477548247 0 0.01268944228 0.0032465864095 -0.00028480959181 
0 0 0 0 0 0 0 0 0 
0 0 0 0 0 0 0 0 0 
0 0 0 0 0 0.0066924629612 0.014468744339 0.0026435477199 0.00042430183969 
0 0 0 0 0 0 0 0 0 
0 0 0 0 0 -0.00043666700694 0 0 -0.00029794289371 
0 0 0.00078527241104 0 0 -0.00010343707391 0 0 0 
0 -0.00037703996354 -4.0446809558e-05 0 0 0.0039354590353 0 0 0 
0 0 0 0.0005428214089 -1.0315895518e-05 0 0.00075376281697 0.012232578052 0 
0 0 0 0 0 0 0 0 0 
0 0 0 0 0 0 0 0 0 
0 0 0 0 0 0.017412286842 0.0042845230904 0.00320101133 -2.4343480739e-05 
0 0 0 0 0 0 0 0 0 
0 0 0 -0.00046294763661 0 0 0 0 0 
0 0 0.0013692345199 0 0 0.039964067889 0.0066714655521 0.0054882710412 0.021342004468 
0.024584722759 0.020949404113 -0.00020985011131 0.022298035601 0.021567134776 0.01799193923 0.016590584746 -8.3260379019e-05 -0.00022914318389 
0.0016749656286 0.0029828280606 0.0098642898369 0 -2.1417229729e-05 0 0 0 9.6448421288e-05 
1.4298198148e-05 0 0 0 0 0.0010010948981 0.0069249069702 0.017152812028 0.026438066422 
0.021870807233 0.0072814078461 0.001257671149 0 0 -0.00019105635555 0.01458223084 -0.00044749438318 0 
0 0 0 0 0.011047515814 0.01301631191 0.0026593607934 0 0 
0 0.00023836796791 0 0 0 0 0 0 0 
0 0 0 0 0 0 0 0 0 
0 0 0 0 0 0 0 0 0 
0 0 0 0 0 0 0 0 0 
0 0.030759020767 0.016995847858 0.0009646481045 0.012868296023 0.00091454302603 0 0 0 
0 0 0 0 0 0 0 0 0 
0 0 0 0 0 0 0 0 0 
0 0 0 0.018759310536 0 0 0 0 0 
0.04931453547 0.017115583876 0 0 0 0 0.00019690087438 0.00029475982595 0 
0 0 0.034676945189 0.027233287791 0.019252882234 -6.974346858e-06 -0.00023544802874 -0.00098411946633 0 
0 0 0 0.00033658171653 -6.4095252555e-05 0 7.8311482413e-06 -0.0011334510427 0.0040177800208 
0.0094059028319 -0.00071133002836 0 0 0 0 0 0 0 
0 4.4523558779e-06 0 0 0 0 0 0 0 
0 0.0010672646534 8.8867121682e-05 0 0 0.00054535972132 0 0 0 
0 0 0.0053318346599 0.010730582865 0.028795848975 0 0 0.019334722269 0.019560810003 
0 0 0.0048016773831 0 0 0.0052018245775 -0.00036572780492 0 -0.00047106216203 
0.0056639471524 0.0056911527124 0 0 0 -4.2834459457e-05 0 3.095132017e-05 0 
0 0 0 1.2024241264e-05 0 0 0.0014466209917 -0.00028723997691 0.00096831908827 
-0.0022024009427 0.018753866524 0.0006478941141 0.003884151049 0.0033094756438 -9.5025062417e-06 0.00010982042039 0 0.01211524533 
0 0.0039968713963 0 0 0 -3.6632200493e-05 0 0 0 
0 0 0 0 0 0 0 0 -2.3125906231e-05 
-0.00035281942182 0 0 0 0 0.012453582833 0.011694978929 0.0053706898282 0 
0 0 0 0 0 0 0 0 0 
0 0 0 0 0 0 0 0 0 
0 0 0.00056077031471 0.00041011803475 0 0 0 0 0.00049846721876 
0 0 0 0 0 0 0 -0.00022908712433 -0.00089370853026 
0.027599484263 0.004347287412 0.0026367158847 0 0 0 0 0 0 
0 0 0 0 -0.0001273360775 0 0.010224202088 0 0 
0 0.0060949202192 0 0.00013353371955 0.0017399509364 0 0 0 -0.00046403917498 
0 0 -0.0022144682412 0 0 0 0 0 0 
-0.00031419053392 0.0026353331013 0.0033137799793 0 0 0 0 0 0 
0.020871492162 0 0 0 0.00012788070297 0 0 -8.6671734768e-05 -2.3418478209e-05 
-4.1151230564e-05 -0.0035057070831 0.021156143207 0.055780452108 0.059322242501 0 -0.00096220107131 0 0 
-0.00023320511791 -0.0003156259094 -0.00020907051009 0 0 0 0 0.0018390937564 0.0019685784361 
0 0 0 0 0 0 0.0016520101593 0.0014549471741 0 
0 0 0.00063761930069 0 0 0 0.055826208501 0.049014644957 0 
0 -0.00080707482328 -0.00030676010008 0 0 -0.00021353080366 0.048414385883 0.046120893342 0.0027500986968 
0.0026498857058 0.0031877109353 0.070408732103 0 0 0.025212458872 0 -0.00075616334664 0 
6.8709950081e-06 0 -5.2798192389e-05 0 -2.3625645611e-05 0 0 0 0 
0.016075055314 -0.00048030990039 0 0 0.0051354098128 0 -9.8220142825e-05 -0.00099601608382 -0.00025853425396 
0.0011835913245 0.0062455798066 -0.0005564275483 0.011848335664 0 0 0.014459756051 0 0.0071908241526 
0 0.014139801561 0 -0.00015921632612 0.012448027681 0 0 0.0014842524323 0.0033471234498 
0.0026128169367 0 0 0 0 0.04309478815 0 0 0 
0.00077905036671 0 0 0 0 0.0058160503893 0 0 
