# vtk DataFile Version 5.1
vtk output
ASCII
DATASET UNSTRUCTURED_GRID
POINTS 63 float
0 0 10 0 0 0 0 10 10 
0 10 0 10 0 10 10 0 0 
10 10 10 10 10 0 0 0 5 
0 5 10 0 10 5 0 5 0 
10 0 5 10 5 10 10 10 5 
10 5 0 5 0 0 5 0 10 
5 10 0 5 10 10 0 5 5 
0 2.5 7.5 0 2.5 2.5 0 7.5 7.5 
0 7.5 2.5 10 5 5 10 2.5 2.5 
10 2.5 7.5 10 7.5 7.5 10 7.5 2.5 
5 0 5 2.5 0 2.5 2.5 0 7.5 
7.5 0 7.5 7.5 0 2.5 5 10 5 
2.5 10 7.5 2.5 10 2.5 7.5 10 7.5 
7.5 10 2.5 5 5 0 2.5 7.5 0 
2.5 2.5 0 7.5 2.5 0 7.5 7.5 0 
5 5 10 2.5 2.5 10 2.5 7.5 10 
7.5 2.5 10 7.5 7.5 10 5 2.5 7.5 
2.5 2.5 5 2.5 5 7.5 5 5 5 
2.5 5 2.5 5 2.5 2.5 2.5 7.5 5 
5 7.5 7.5 5 7.5 2.5 7.5 5 7.5 
7.5 7.5 5 7.5 5 2.5 7.5 2.5 5 

CELLS 25 240
OFFSETS vtktypeint64
0 10 20 30 40 50 60 70 80 
90 100 110 120 130 140 150 160 170 
180 190 200 210 220 230 240 
CONNECTIVITY vtktypeint64
45 20 30 40 52 51 50 53 54 
55 45 35 20 40 57 56 52 53 
58 54 25 35 45 40 60 57 59 
61 58 53 30 25 45 40 62 59 
50 55 61 53 35 20 3 2 56 
24 37 36 23 10 6 45 4 25 
49 48 13 28 59 27 45 20 2 
0 52 23 47 46 21 9 20 30 
1 0 51 31 22 21 32 8 35 
45 2 6 57 47 36 38 49 19 
30 0 45 4 32 46 50 33 17 
48 20 3 1 40 24 11 22 54 
41 42 35 25 6 7 60 28 38 
39 29 14 25 30 4 5 62 33 
27 26 34 12 25 5 7 40 26 
15 29 61 43 44 1 5 30 40 
16 34 31 42 43 55 7 3 35 
40 18 37 39 44 41 58 20 35 
3 40 56 37 24 54 58 41 4 
45 30 25 48 50 33 27 59 62 
2 35 20 45 36 56 23 47 57 
52 45 30 20 0 50 51 52 46 
32 21 6 35 45 25 38 57 49 
28 60 59 20 1 30 40 22 31 
51 54 42 55 5 25 30 40 26 
62 34 43 61 55 7 35 25 40 
39 60 29 44 58 61 
CELL_TYPES 24
24
24
24
24
24
24
24
24
24
24
24
24
24
24
24
24
24
24
24
24
24
24
24
24

POINT_DATA 63
FIELD FieldData 12
Displacement 3 63 double
0 -2.8487093361e-21 3.3538572288e-06 0 -5.2164610717e-21 0 0 0 3.3538572288e-06 
0 0 0 -3.3538572288e-06 1.5140834168e-21 3.3538572288e-06 -3.3538572288e-06 -5.481471201e-22 0 
-3.3538572288e-06 0 3.3538572288e-06 -3.3538572288e-06 0 0 0 2.7039126938e-23 1.6769286144e-06 
0 -2.1227757024e-21 3.3538572288e-06 0 0 1.6769286144e-06 0 -6.705084952e-24 0 
-3.3538572288e-06 4.0304384231e-21 1.6769286144e-06 -3.3538572288e-06 9.5484177762e-22 3.3538572288e-06 -3.3538572288e-06 0 1.6769286144e-06 
-3.3538572288e-06 2.0741482697e-21 0 -1.6769286144e-06 2.239930031e-21 0 -1.6769286144e-06 -3.7776962339e-21 3.3538572288e-06 
-1.6769286144e-06 0 0 -1.6769286144e-06 0 3.3538572288e-06 0 -4.619990626e-22 1.6769286144e-06 
0 -2.8477966402e-22 2.5153929216e-06 0 -5.0388969047e-23 8.384643072e-07 0 8.0914741723e-23 2.5153929216e-06 
0 -7.972504614e-22 8.384643072e-07 -3.3538572288e-06 7.2474404665e-22 1.6769286144e-06 -3.3538572288e-06 2.0167182313e-21 8.384643072e-07 
-3.3538572288e-06 1.2280943778e-21 2.5153929216e-06 -3.3538572288e-06 2.5648559701e-21 2.5153929216e-06 -3.3538572288e-06 -1.9072864808e-22 8.384643072e-07 
-1.6769286144e-06 6.8551022679e-22 1.6769286144e-06 -8.384643072e-07 -8.39734416e-22 8.384643072e-07 -8.384643072e-07 -7.517372547e-22 2.5153929216e-06 
-2.5153929216e-06 -3.2671120148e-22 2.5153929216e-06 -2.5153929216e-06 2.1275200544e-22 8.384643072e-07 -1.6769286144e-06 0 1.6769286144e-06 
-8.384643072e-07 0 2.5153929216e-06 -8.384643072e-07 0 8.384643072e-07 -2.5153929216e-06 0 2.5153929216e-06 
-2.5153929216e-06 0 8.384643072e-07 -1.6769286144e-06 3.6529982127e-22 0 -8.384643072e-07 9.971073793e-22 0 
-8.384643072e-07 -2.7308136044e-21 0 -2.5153929216e-06 3.8320450204e-22 0 -2.5153929216e-06 -4.1908761803e-22 0 
-1.6769286144e-06 -4.5229316668e-23 3.3538572288e-06 -8.384643072e-07 -3.508263946e-21 3.3538572288e-06 -8.384643072e-07 -6.2109935059e-22 3.3538572288e-06 
-2.5153929216e-06 -1.0499899686e-22 3.3538572288e-06 -2.5153929216e-06 -1.6887436718e-21 3.3538572288e-06 -1.6769286144e-06 -5.9487643346e-22 2.5153929216e-06 
-8.384643072e-07 -2.2707135373e-22 1.6769286144e-06 -8.384643072e-07 -2.9059542838e-22 2.5153929216e-06 -1.6769286144e-06 -1.6961207667e-22 1.6769286144e-06 
-8.384643072e-07 -8.1032268644e-24 8.384643072e-07 -1.6769286144e-06 2.2984409751e-21 8.384643072e-07 -8.384643072e-07 3.2740636437e-22 1.6769286144e-06 
-1.6769286144e-06 5.8614776133e-22 2.5153929216e-06 -1.6769286144e-06 -1.6349074042e-21 8.384643072e-07 -2.5153929216e-06 9.8646274669e-24 2.5153929216e-06 
-2.5153929216e-06 -6.7563317693e-22 1.6769286144e-06 -2.5153929216e-06 3.7539537342e-22 8.384643072e-07 -2.5153929216e-06 1.1429112664e-21 1.6769286144e-06 

Critical%20Strain%20Ratio 1 63 double
0.0055093774176 0.0055093774176 0.0055093774176 0.0055093774176 0.0055093774176 0.0055093774176 0.0055093774176 0.0055093774176 0.0055093774176 
0.0055093774176 0.0055093774176 0.0055093774176 0.0055093774176 0.0055093774176 0.0055093774176 0.0055093774176 0.0055093774176 0.0055093774176 
0.0055093774176 0.0055093774176 0.0055093774176 0.0055093774176 0.0055093774176 0.0055093774176 0.0055093774176 0.0055093774176 0.0055093774176 
0.0055093774176 0.0055093774176 0.0055093774176 0.0055093774176 0.0055093774176 0.0055093774176 0.0055093774176 0.0055093774176 0.0055093774176 
0.0055093774176 0.0055093774176 0.0055093774176 0.0055093774176 0.0055093774176 0.0055093774176 0.0055093774176 0.0055093774176 0.0055093774176 
0.0055093774176 0.0055093774176 0.0055093774176 0.0055093774176 0.0055093774176 0.0055093774176 0.0055093774176 0.0055093774176 0.0055093774176 
0.0055093774176 0.0055093774176 0.0055093774176 0.0055093774176 0.0055093774176 0.0055093774176 0.0055093774176 0.0055093774176 0.0055093774176 

Displacement%20Magnitude 1 63 double
3.3538572288e-06 5.2164610717e-21 3.3538572288e-06 0 4.7430703792e-06 3.3538572288e-06 4.7430703792e-06 3.3538572288e-06 1.6769286144e-06 
3.3538572288e-06 1.6769286144e-06 6.705084952e-24 3.7497263752e-06 4.7430703792e-06 3.7497263752e-06 3.3538572288e-06 1.6769286144e-06 3.7497263752e-06 
1.6769286144e-06 3.7497263752e-06 1.6769286144e-06 2.5153929216e-06 8.384643072e-07 2.5153929216e-06 8.384643072e-07 3.7497263752e-06 3.4570769019e-06 
4.192321536e-06 4.192321536e-06 3.4570769019e-06 2.3715351896e-06 1.1857675948e-06 2.6514569475e-06 3.5573027844e-06 2.6514569475e-06 2.3715351896e-06 
2.6514569475e-06 1.1857675948e-06 3.5573027844e-06 2.6514569475e-06 1.6769286144e-06 8.384643072e-07 8.384643072e-07 2.5153929216e-06 2.5153929216e-06 
3.7497263752e-06 3.4570769019e-06 3.4570769019e-06 4.192321536e-06 4.192321536e-06 3.0231260523e-06 1.8748631876e-06 2.6514569475e-06 2.3715351896e-06 
1.1857675948e-06 1.8748631876e-06 1.8748631876e-06 3.0231260523e-06 1.8748631876e-06 3.5573027844e-06 3.0231260523e-06 2.6514569475e-06 3.0231260523e-06 

Stress%20xx%20component 1 63 double
-138564064.61 -138564064.61 -138564064.61 -138564064.61 -138564064.61 -138564064.61 -138564064.61 -138564064.61 -138564064.61 
-138564064.61 -138564064.61 -138564064.61 -138564064.61 -138564064.61 -138564064.61 -138564064.61 -138564064.61 -138564064.61 
-138564064.61 -138564064.61 -138564064.61 -138564064.61 -138564064.61 -138564064.61 -138564064.61 -138564064.61 -138564064.61 
-138564064.61 -138564064.61 -138564064.61 -138564064.61 -138564064.61 -138564064.61 -138564064.61 -138564064.61 -138564064.61 
-138564064.61 -138564064.61 -138564064.61 -138564064.61 -138564064.61 -138564064.61 -138564064.61 -138564064.61 -138564064.61 
-138564064.61 -138564064.61 -138564064.61 -138564064.61 -138564064.61 -138564064.61 -138564064.61 -138564064.61 -138564064.61 
-138564064.61 -138564064.61 -138564064.61 -138564064.61 -138564064.61 -138564064.61 -138564064.61 -138564064.61 -138564064.61 

Stress%20xy%20component 1 63 double
1.1286869475e-07 1.5206791151e-07 1.2262445445e-07 1.250616592e-07 4.013371446e-07 1.8457311557e-07 -1.0606586134e-06 -4.379322034e-07 1.340164231e-08 
-8.1427127527e-08 9.8848284552e-09 -4.0569066436e-08 1.3867227112e-07 -1.5781420912e-07 -2.1787519325e-07 -1.4292175625e-07 3.5138434877e-07 3.9005594433e-07 
3.50504431e-09 -4.8901435821e-07 2.1122163944e-08 6.7332576701e-08 -4.5885790916e-08 -1.1280696477e-07 6.7187749661e-08 1.1753665347e-07 9.7360718181e-08 
1.4052915731e-07 -1.0318284499e-07 -1.2024717027e-07 -1.7798526624e-07 9.3963627305e-08 -6.8827901625e-08 7.6666629925e-08 -1.3548370375e-07 -3.3736069509e-08 
1.4426479956e-07 5.1897900861e-08 -4.5364209947e-07 -2.4355312276e-08 1.3004846436e-07 2.5356751161e-07 8.9308527278e-08 2.2850134452e-07 -2.8207307764e-07 
-1.0079016183e-07 -1.6512807464e-07 8.8684993101e-08 -1.0320589951e-08 -3.0184549899e-07 -2.9487340615e-07 4.5753039501e-08 -9.4232395987e-08 -2.4068046931e-08 
1.0036810058e-07 -1.7596796089e-09 -1.71355698e-07 3.1256907627e-08 -2.2958935943e-08 6.9526432455e-08 1.9983970219e-07 5.3538244427e-08 -2.195798906e-07 

Stress%20xz%20component 1 63 double
3.3427018795e-07 2.7783837747e-08 1.5319694031e-07 -3.3077961234e-07 1.1897321884e-07 1.0127045765e-07 -1.1253496866e-07 2.5372026955e-07 1.0633173677e-07 
6.6662412895e-07 -1.0859956834e-07 1.6509575234e-08 3.4365387776e-08 1.2176256442e-07 -1.5123633236e-07 -1.9902258371e-07 1.9700351348e-07 7.7025405254e-08 
-1.5740864967e-07 2.4770059249e-08 -2.8860626878e-07 -5.8348124627e-08 7.8326684353e-08 -5.8268063645e-08 -1.0028472335e-07 5.3988951565e-09 -6.9701334666e-08 
5.9348618072e-08 -1.7309355573e-07 8.9545898586e-08 -5.1753236706e-08 -1.239318129e-07 -2.120776352e-08 5.3845941229e-08 2.0618407568e-07 -2.9619769601e-08 
-4.617753863e-08 -2.7865118281e-07 -2.821865675e-08 1.9176572861e-07 -1.386894346e-07 -4.3096455029e-07 -3.11813295e-07 1.2676011848e-07 1.9248573653e-07 
2.548241235e-08 3.0334305021e-07 3.9088375543e-08 4.6547001475e-08 -5.3511075198e-09 4.2014837217e-08 -2.8505110491e-07 -2.008591725e-07 3.9659842917e-08 
-3.4514326248e-07 -7.5690283978e-08 -1.6231289846e-07 -1.9096366569e-08 -7.0210855516e-08 -3.718566949e-08 2.2021194931e-08 1.4993892848e-07 1.0526179447e-07 

Stress%20yy%20component 1 63 double
-3.47120479e-08 -5.8376368742e-08 2.2322900441e-07 -3.4799007047e-07 -5.3872126773e-08 2.2409726068e-07 -7.7446638587e-09 -1.7742894294e-07 2.3794899334e-07 
-3.2668574983e-07 5.0776852979e-07 -6.1440044803e-07 -6.3254553008e-08 -3.1576681474e-07 7.2417909511e-08 1.4566624955e-07 1.6563619776e-07 -5.4074014471e-08 
8.0750635167e-08 -2.3050235392e-07 1.678900717e-07 2.2298096071e-07 1.3150371387e-07 3.8548550765e-07 5.6499721532e-08 -1.9272712592e-07 -1.2054861145e-07 
-1.4536006082e-07 7.2070527107e-08 -2.378206545e-07 -5.9771312086e-08 -1.0252863874e-07 -5.9283008133e-09 5.5305972519e-08 7.277322295e-08 -2.095607708e-08 
9.1418771648e-08 -1.4899184865e-07 4.5936821888e-08 -1.0007718094e-07 1.6384617611e-07 -2.9669569891e-07 -5.3660274733e-08 2.0664207135e-07 -4.5414375916e-08 
-2.6016427819e-09 -6.1537265757e-08 6.1157756911e-08 1.1434534042e-07 -8.5893124198e-08 -9.7584307515e-10 -1.2972630865e-07 -2.2791218057e-07 -8.4818788772e-09 
2.8140113585e-07 1.7843826855e-07 -2.6412956455e-08 -1.4404411103e-10 1.85427631e-07 2.1209948402e-07 -1.4254828164e-07 -1.7260081575e-07 -2.6708522552e-07 

Stress%20yz%20component 1 63 double
1.8240835021e-08 -8.2479720062e-08 2.6772135371e-07 -2.4816787207e-08 -4.201865343e-07 -4.2256897252e-09 1.0858014406e-06 -1.0747000522e-07 -1.7613951247e-07 
1.6394596537e-08 3.898212546e-07 3.6047915321e-08 -2.5724897829e-07 1.6751966999e-07 5.7093102308e-07 7.8271921447e-09 -9.4585829877e-08 -2.6512282989e-07 
-1.398659668e-09 4.3588830417e-07 -1.2826837546e-07 3.4552391717e-08 1.7205711194e-07 -4.6904245839e-08 -2.9848613778e-07 5.7469345176e-08 3.306483123e-07 
4.2958278898e-08 2.2048576943e-07 -1.9856410003e-07 -1.6311459102e-07 -3.2497523096e-07 -7.4787706062e-08 -3.0700864932e-07 -1.5835540771e-07 7.7182514996e-08 
1.7434096783e-07 9.6706025105e-08 5.7983299428e-07 1.0678357058e-07 5.1801787725e-08 -8.3790105532e-08 9.6995606326e-08 3.8854076118e-08 1.1439008976e-08 
-1.8098762155e-08 8.654437146e-08 -1.2905528797e-07 3.5530327958e-08 2.9380603876e-08 2.3724297678e-07 -1.0212845646e-08 -6.4307866198e-08 1.141105611e-07 
6.6075650914e-09 -1.341007703e-07 -1.7149385219e-07 -2.5030863455e-07 1.8722216278e-07 -1.4384881789e-08 -1.5344295707e-07 1.2195311961e-07 2.3756336453e-07 

Stress%20zz%20component 1 63 double
138564064.61 138564064.61 138564064.61 138564064.61 138564064.61 138564064.61 138564064.61 138564064.61 138564064.61 
138564064.61 138564064.61 138564064.61 138564064.61 138564064.61 138564064.61 138564064.61 138564064.61 138564064.61 
138564064.61 138564064.61 138564064.61 138564064.61 138564064.61 138564064.61 138564064.61 138564064.61 138564064.61 
138564064.61 138564064.61 138564064.61 138564064.61 138564064.61 138564064.61 138564064.61 138564064.61 138564064.61 
138564064.61 138564064.61 138564064.61 138564064.61 138564064.61 138564064.61 138564064.61 138564064.61 138564064.61 
138564064.61 138564064.61 138564064.61 138564064.61 138564064.61 138564064.61 138564064.61 138564064.61 138564064.61 
138564064.61 138564064.61 138564064.61 138564064.61 138564064.61 138564064.61 138564064.61 138564064.61 138564064.61 

Equivalent%20Plastic%20Strain 1 63 double
0.00090834277367 0.00090834277367 0.00090834277367 0.00090834277367 0.00090834277367 0.00090834277367 0.00090834277367 0.00090834277367 0.00090834277367 
0.00090834277367 0.00090834277367 0.00090834277367 0.00090834277367 0.00090834277367 0.00090834277367 0.00090834277367 0.00090834277367 0.00090834277367 
0.00090834277367 0.00090834277367 0.00090834277367 0.00090834277367 0.00090834277367 0.00090834277367 0.00090834277367 0.00090834277367 0.00090834277367 
0.00090834277367 0.00090834277367 0.00090834277367 0.00090834277367 0.00090834277367 0.00090834277367 0.00090834277367 0.00090834277367 0.00090834277367 
0.00090834277367 0.00090834277367 0.00090834277367 0.00090834277367 0.00090834277367 0.00090834277367 0.00090834277367 0.00090834277367 0.00090834277367 
0.00090834277367 0.00090834277367 0.00090834277367 0.00090834277367 0.00090834277367 0.00090834277367 0.00090834277367 0.00090834277367 0.00090834277367 
0.00090834277367 0.00090834277367 0.00090834277367 0.00090834277367 0.00090834277367 0.00090834277367 0.00090834277367 0.00090834277367 0.00090834277367 

Temperature 1 63 double
0.0055093774176 0.0055093774176 0.0055093774176 0.0055093774176 0.0055093774176 0.0055093774176 0.0055093774176 0.0055093774176 0.0055093774176 
0.0055093774176 0.0055093774176 0.0055093774176 0.0055093774176 0.0055093774176 0.0055093774176 0.0055093774176 0.0055093774176 0.0055093774176 
0.0055093774176 0.0055093774176 0.0055093774176 0.0055093774176 0.0055093774176 0.0055093774176 0.0055093774176 0.0055093774176 0.0055093774176 
0.0055093774176 0.0055093774176 0.0055093774176 0.0055093774176 0.0055093774176 0.0055093774176 0.0055093774176 0.0055093774176 0.0055093774176 
0.0055093774176 0.0055093774176 0.0055093774176 0.0055093774176 0.0055093774176 0.0055093774176 0.0055093774176 0.0055093774176 0.0055093774176 
0.0055093774176 0.0055093774176 0.0055093774176 0.0055093774176 0.0055093774176 0.0055093774176 0.0055093774176 0.0055093774176 0.0055093774176 
0.0055093774176 0.0055093774176 0.0055093774176 0.0055093774176 0.0055093774176 0.0055093774176 0.0055093774176 0.0055093774176 0.0055093774176 

von%20Mises%20Stress 1 63 double
240000000 240000000 240000000 240000000 240000000 240000000 240000000 240000000 240000000 
240000000 240000000 240000000 240000000 240000000 240000000 240000000 240000000 240000000 
240000000 240000000 240000000 240000000 240000000 240000000 240000000 240000000 240000000 
240000000 240000000 240000000 240000000 240000000 240000000 240000000 240000000 240000000 
240000000 240000000 240000000 240000000 240000000 240000000 240000000 240000000 240000000 
240000000 240000000 240000000 240000000 240000000 240000000 240000000 240000000 240000000 
240000000 240000000 240000000 240000000 240000000 240000000 240000000 240000000 240000000 

