# vtk DataFile Version 5.1
vtk output
ASCII
DATASET UNSTRUCTURED_GRID
POINTS 3803 float
-50.4035 -4e-15 -3.85 -50.4035 -4e-15 3.85 -38.605 -4.93315 -3.85 
-38.605 -4.93315 3.85 -31.9679 4.59652 -3.85 -31.9679 4.59652 3.85 
-21 0.45642 -3.85 -21 0.45642 -2.65 -21 0.45642 2.65 
-21 0.45642 3.85 -12.4448 15.4062 -3.85 -18 31.0321 -3.85 
-38.8249 32.9799 -3.85 -55 18.4356 -3.85 -36.5644 23.0321 -3.85 
-12.4448 15.4062 3.85 -18 31.0321 3.85 -38.8249 32.9799 3.85 
-55 18.4356 3.85 -36.5644 23.0321 3.85 -12.4448 15.4062 -2.65 
-2e-15 9.03214 -2.65 -2e-15 9.03214 2.65 -12.4448 15.4062 2.65 
-18 31.0321 -2.65 -18 31.0321 2.65 -5e-15 25.0321 -2.65 
140 25.0321 -2.65 175 25.0321 -2.65 175 9.03214 -2.65 
140 9.03214 -2.65 140 9.03214 2.65 -5e-15 25.0321 2.65 
140 25.0321 2.65 175 25.0321 2.65 175 9.03214 2.65 
-50.4035 -3.55e-15 1.02141e-14 -50.4035 -3.55e-15 -1.925 -50.4035 -3.55e-15 1.925 
-38.605 -4.93315 1.02141e-14 -38.605 -4.93315 -1.925 -38.605 -4.93315 1.925 
-46.7204 -2.20381 -3.85 -42.7606 -3.85949 -3.85 -48.6014 -1.16786 -3.85 
-44.7701 -3.10256 -3.85 -40.702 -4.47073 -3.85 -46.7204 -2.20381 3.85 
-42.7606 -3.85949 3.85 -48.6014 -1.16786 3.85 -44.7701 -3.10256 3.85 
-40.702 -4.47073 3.85 -31.9679 4.59652 1.02141e-14 -31.9679 4.59652 -1.925 
-31.9679 4.59652 1.925 -45.7946 1.14913 -3.85 -41.1857 2.29826 -3.85 
-36.5768 3.44739 -3.85 -48.099 0.574565 -3.85 -43.4901 1.72369 -3.85 
-38.8812 2.87282 -3.85 -34.2723 4.02195 -3.85 -45.7946 1.14913 3.85 
-41.1857 2.29826 3.85 -36.5768 3.44739 3.85 -48.099 0.574565 3.85 
-43.4901 1.72369 3.85 -38.8812 2.87282 3.85 -34.2723 4.02195 3.85 
-21 0.45642 -3.25 -21 0.45642 4.44089e-16 -21 0.45642 -1.325 
-21 0.45642 1.325 -21 0.45642 3.25 -33.8422 -5.22719 -3.85 
-29.1454 -4.38463 -3.85 -24.7819 -2.45346 -3.85 -36.2324 -5.22272 -3.85 
-31.4686 -4.94649 -3.85 -26.9059 -3.54965 -3.85 -22.8038 -1.11171 -3.85 
-33.8422 -5.22719 3.85 -29.1454 -4.38463 3.85 -24.7819 -2.45346 3.85 
-36.2324 -5.22272 3.85 -31.4686 -4.94649 3.85 -26.9059 -3.54965 3.85 
-22.8038 -1.11171 3.85 -18.1054 3.71385 -3.85 -15.6857 7.33806 -3.85 
-13.7869 11.2603 -3.85 -19.4966 2.03525 -3.85 -16.8331 5.48426 -3.85 
-14.6687 9.26646 -3.85 -13.0444 13.3101 -3.85 -12.0178 19.7626 -3.85 
-12.8666 24.0567 -3.85 -14.9189 27.923 -3.85 -12.0716 17.5687 -3.85 
-12.2847 21.9408 -3.85 -13.751 26.0651 -3.85 -16.3454 29.5905 -3.85 
-21.7827 33.2661 -3.85 -25.9618 34.6202 -3.85 -30.3358 35.0293 -3.85 
-34.6936 34.4736 -3.85 -19.8298 32.2533 -3.85 -23.835 34.0582 -3.85 
-28.1376 34.9452 -3.85 -32.53 34.8715 -3.85 -36.8004 33.8405 -3.85 
-42.6638 30.8221 -3.85 -46.2423 28.2555 -3.85 -49.5169 25.311 -3.85 
-52.448 22.0245 -3.85 -40.7741 31.9539 -3.85 -44.4884 29.5881 -3.85 
-47.9201 26.8284 -3.85 -51.0277 23.7081 -3.85 -53.7734 20.2652 -3.85 
-50.3911 19.5847 -3.85 -45.7822 20.7339 -3.85 -41.1733 21.883 -3.85 
-52.6955 19.0102 -3.85 -48.0866 20.1593 -3.85 -43.4777 21.3084 -3.85 
-38.8688 22.4576 -3.85 -28.9928 7.48581 -3.85 -27.4458 11.3336 -3.85 
-27.5929 15.4781 -3.85 -29.4088 19.2066 -3.85 -32.5811 21.8777 -3.85 
-30.3289 5.88524 -3.85 -28.0177 9.32863 -3.85 -27.3022 13.4136 -3.85 
-28.3054 17.4375 -3.85 -30.855 20.7084 -3.85 -34.5123 22.6637 -3.85 
-18.1054 3.71385 3.85 -15.6857 7.33806 3.85 -13.7869 11.2603 3.85 
-19.4966 2.03525 3.85 -16.8331 5.48426 3.85 -14.6687 9.26646 3.85 
-13.0444 13.3101 3.85 -12.0178 19.7626 3.85 -12.8666 24.0567 3.85 
-14.9189 27.923 3.85 -12.0716 17.5687 3.85 -12.2847 21.9408 3.85 
-13.751 26.0651 3.85 -16.3454 29.5905 3.85 -21.7827 33.2661 3.85 
-25.9618 34.6202 3.85 -30.3358 35.0293 3.85 -34.6936 34.4736 3.85 
-19.8298 32.2533 3.85 -23.835 34.0582 3.85 -28.1376 34.9452 3.85 
-32.53 34.8715 3.85 -36.8004 33.8405 3.85 -42.6638 30.8221 3.85 
-46.2423 28.2555 3.85 -49.5169 25.311 3.85 -52.448 22.0245 3.85 
-40.7741 31.9539 3.85 -44.4884 29.5881 3.85 -47.9201 26.8284 3.85 
-51.0277 23.7081 3.85 -53.7734 20.2652 3.85 -50.3911 19.5847 3.85 
-45.7822 20.7339 3.85 -41.1733 21.883 3.85 -52.6955 19.0102 3.85 
-48.0866 20.1593 3.85 -43.4777 21.3084 3.85 -38.8688 22.4576 3.85 
-28.9928 7.48581 3.85 -27.4458 11.3336 3.85 -27.5929 15.4781 3.85 
-29.4088 19.2066 3.85 -32.5811 21.8777 3.85 -30.3289 5.88524 3.85 
-28.0177 9.32863 3.85 -27.3022 13.4136 3.85 -28.3054 17.4375 3.85 
-30.855 20.7084 3.85 -34.5123 22.6637 3.85 -36.5644 23.0321 1.02141e-14 
-36.5644 23.0321 -1.925 -36.5644 23.0321 1.925 -12.4448 15.4062 -3.25 
-18.1054 3.71385 -2.65 -15.6857 7.33806 -2.65 -13.7869 11.2603 -2.65 
-19.4966 2.03525 -2.65 -16.8331 5.48426 -2.65 -14.6687 9.26646 -2.65 
-13.0444 13.3101 -2.65 -1.86e-15 9.03214 4.44089e-16 -1.86e-15 9.03214 -1.325 
-1.86e-15 9.03214 1.325 -4.63376 8.67211 -2.65 -9.1563 7.60069 -2.65 
-13.4591 5.84357 -2.65 -17.4388 3.44294 -2.65 -2.32386 8.94199 -2.65 
-6.91581 8.22411 -2.65 -11.3418 6.80558 -2.65 -15.4955 4.72044 -2.65 
-19.2773 2.01875 -2.65 -4.63376 8.67211 2.65 -9.1563 7.60069 2.65 
-13.4591 5.84357 2.65 -17.4388 3.44294 2.65 -2.32386 8.94199 2.65 
-6.91581 8.22411 2.65 -11.3418 6.80558 2.65 -15.4955 4.72044 2.65 
-19.2773 2.01875 2.65 -18.1054 3.71385 2.65 -15.6857 7.33806 2.65 
-13.7869 11.2603 2.65 -19.4966 2.03525 2.65 -16.8331 5.48426 2.65 
-14.6687 9.26646 2.65 -13.0444 13.3101 2.65 -12.4448 15.4062 3.25 
-18 31.0321 -3.25 -12.0178 19.7626 -2.65 -12.8666 24.0567 -2.65 
-14.9189 27.923 -2.65 -12.0716 17.5687 -2.65 -12.2847 21.9408 -2.65 
-13.751 26.0651 -2.65 -16.3454 29.5905 -2.65 -18 31.0321 4.44089e-16 
-18 31.0321 -1.325 -18 31.0321 1.325 -18 31.0321 3.25 
-38.8249 32.9799 1.02141e-14 -38.8249 32.9799 -1.925 -38.8249 32.9799 1.925 
-55 18.4356 1.02141e-14 -55 18.4356 -1.925 -55 18.4356 1.925 
-12.0178 19.7626 2.65 -12.8666 24.0567 2.65 -14.9189 27.923 2.65 
-12.0716 17.5687 2.65 -12.2847 21.9408 2.65 -13.751 26.0651 2.65 
-16.3454 29.5905 2.65 -13.9232 28.4588 -2.65 -9.48683 26.5716 -2.65 
-4.80547 25.4195 -2.65 -16.0134 29.6634 -2.65 -11.743 27.4259 -2.65 
-7.16933 25.9014 -2.65 -2.41053 25.1291 -2.65 5 25.0321 -2.65 
10 25.0321 -2.65 15 25.0321 -2.65 20 25.0321 -2.65 
25 25.0321 -2.65 30 25.0321 -2.65 35 25.0321 -2.65 
40 25.0321 -2.65 45 25.0321 -2.65 50 25.0321 -2.65 
55 25.0321 -2.65 60 25.0321 -2.65 65 25.0321 -2.65 
70 25.0321 -2.65 75 25.0321 -2.65 80 25.0321 -2.65 
85 25.0321 -2.65 90 25.0321 -2.65 95 25.0321 -2.65 
100 25.0321 -2.65 105 25.0321 -2.65 110 25.0321 -2.65 
115 25.0321 -2.65 120 25.0321 -2.65 125 25.0321 -2.65 
130 25.0321 -2.65 135 25.0321 -2.65 2.5 25.0321 -2.65 
7.5 25.0321 -2.65 12.5 25.0321 -2.65 17.5 25.0321 -2.65 
22.5 25.0321 -2.65 27.5 25.0321 -2.65 32.5 25.0321 -2.65 
37.5 25.0321 -2.65 42.5 25.0321 -2.65 47.5 25.0321 -2.65 
52.5 25.0321 -2.65 57.5 25.0321 -2.65 62.5 25.0321 -2.65 
67.5 25.0321 -2.65 72.5 25.0321 -2.65 77.5 25.0321 -2.65 
82.5 25.0321 -2.65 87.5 25.0321 -2.65 92.5 25.0321 -2.65 
97.5 25.0321 -2.65 102.5 25.0321 -2.65 107.5 25.0321 -2.65 
112.5 25.0321 -2.65 117.5 25.0321 -2.65 122.5 25.0321 -2.65 
127.5 25.0321 -2.65 132.5 25.0321 -2.65 137.5 25.0321 -2.65 
145 25.0321 -2.65 150 25.0321 -2.65 155 25.0321 -2.65 
160 25.0321 -2.65 165 25.0321 -2.65 170 25.0321 -2.65 
142.5 25.0321 -2.65 147.5 25.0321 -2.65 152.5 25.0321 -2.65 
157.5 25.0321 -2.65 162.5 25.0321 -2.65 167.5 25.0321 -2.65 
172.5 25.0321 -2.65 175 21.0321 -2.65 175 17.0321 -2.65 
175 13.0321 -2.65 175 23.0321 -2.65 175 19.0321 -2.65 
175 15.0321 -2.65 175 11.0321 -2.65 145 9.03214 -2.65 
150 9.03214 -2.65 155 9.03214 -2.65 160 9.03214 -2.65 
165 9.03214 -2.65 170 9.03214 -2.65 142.5 9.03214 -2.65 
147.5 9.03214 -2.65 152.5 9.03214 -2.65 157.5 9.03214 -2.65 
162.5 9.03214 -2.65 167.5 9.03214 -2.65 172.5 9.03214 -2.65 
5 9.03214 -2.65 10 9.03214 -2.65 15 9.03214 -2.65 
20 9.03214 -2.65 25 9.03214 -2.65 30 9.03214 -2.65 
35 9.03214 -2.65 40 9.03214 -2.65 45 9.03214 -2.65 
50 9.03214 -2.65 55 9.03214 -2.65 60 9.03214 -2.65 
65 9.03214 -2.65 70 9.03214 -2.65 75 9.03214 -2.65 
80 9.03214 -2.65 85 9.03214 -2.65 90 9.03214 -2.65 
95 9.03214 -2.65 100 9.03214 -2.65 105 9.03214 -2.65 
110 9.03214 -2.65 115 9.03214 -2.65 120 9.03214 -2.65 
125 9.03214 -2.65 130 9.03214 -2.65 135 9.03214 -2.65 
2.5 9.03214 -2.65 7.5 9.03214 -2.65 12.5 9.03214 -2.65 
17.5 9.03214 -2.65 22.5 9.03214 -2.65 27.5 9.03214 -2.65 
32.5 9.03214 -2.65 37.5 9.03214 -2.65 42.5 9.03214 -2.65 
47.5 9.03214 -2.65 52.5 9.03214 -2.65 57.5 9.03214 -2.65 
62.5 9.03214 -2.65 67.5 9.03214 -2.65 72.5 9.03214 -2.65 
77.5 9.03214 -2.65 82.5 9.03214 -2.65 87.5 9.03214 -2.65 
92.5 9.03214 -2.65 97.5 9.03214 -2.65 102.5 9.03214 -2.65 
107.5 9.03214 -2.65 112.5 9.03214 -2.65 117.5 9.03214 -2.65 
122.5 9.03214 -2.65 127.5 9.03214 -2.65 132.5 9.03214 -2.65 
137.5 9.03214 -2.65 140 9.03214 4.44089e-16 140 9.03214 -1.325 
140 9.03214 1.325 5 9.03214 2.65 10 9.03214 2.65 
15 9.03214 2.65 20 9.03214 2.65 25 9.03214 2.65 
30 9.03214 2.65 35 9.03214 2.65 40 9.03214 2.65 
45 9.03214 2.65 50 9.03214 2.65 55 9.03214 2.65 
60 9.03214 2.65 65 9.03214 2.65 70 9.03214 2.65 
75 9.03214 2.65 80 9.03214 2.65 85 9.03214 2.65 
90 9.03214 2.65 95 9.03214 2.65 100 9.03214 2.65 
105 9.03214 2.65 110 9.03214 2.65 115 9.03214 2.65 
120 9.03214 2.65 125 9.03214 2.65 130 9.03214 2.65 
135 9.03214 2.65 2.5 9.03214 2.65 7.5 9.03214 2.65 
12.5 9.03214 2.65 17.5 9.03214 2.65 22.5 9.03214 2.65 
27.5 9.03214 2.65 32.5 9.03214 2.65 37.5 9.03214 2.65 
42.5 9.03214 2.65 47.5 9.03214 2.65 52.5 9.03214 2.65 
57.5 9.03214 2.65 62.5 9.03214 2.65 67.5 9.03214 2.65 
72.5 9.03214 2.65 77.5 9.03214 2.65 82.5 9.03214 2.65 
87.5 9.03214 2.65 92.5 9.03214 2.65 97.5 9.03214 2.65 
102.5 9.03214 2.65 107.5 9.03214 2.65 112.5 9.03214 2.65 
117.5 9.03214 2.65 122.5 9.03214 2.65 127.5 9.03214 2.65 
132.5 9.03214 2.65 137.5 9.03214 2.65 -13.9232 28.4588 2.65 
-9.48683 26.5716 2.65 -4.80547 25.4195 2.65 -16.0134 29.6634 2.65 
-11.743 27.4259 2.65 -7.16933 25.9014 2.65 -2.41053 25.1291 2.65 
5 25.0321 2.65 10 25.0321 2.65 15 25.0321 2.65 
20 25.0321 2.65 25 25.0321 2.65 30 25.0321 2.65 
35 25.0321 2.65 40 25.0321 2.65 45 25.0321 2.65 
50 25.0321 2.65 55 25.0321 2.65 60 25.0321 2.65 
65 25.0321 2.65 70 25.0321 2.65 75 25.0321 2.65 
80 25.0321 2.65 85 25.0321 2.65 90 25.0321 2.65 
95 25.0321 2.65 100 25.0321 2.65 105 25.0321 2.65 
110 25.0321 2.65 115 25.0321 2.65 120 25.0321 2.65 
125 25.0321 2.65 130 25.0321 2.65 135 25.0321 2.65 
2.5 25.0321 2.65 7.5 25.0321 2.65 12.5 25.0321 2.65 
17.5 25.0321 2.65 22.5 25.0321 2.65 27.5 25.0321 2.65 
32.5 25.0321 2.65 37.5 25.0321 2.65 42.5 25.0321 2.65 
47.5 25.0321 2.65 52.5 25.0321 2.65 57.5 25.0321 2.65 
62.5 25.0321 2.65 67.5 25.0321 2.65 72.5 25.0321 2.65 
77.5 25.0321 2.65 82.5 25.0321 2.65 87.5 25.0321 2.65 
92.5 25.0321 2.65 97.5 25.0321 2.65 102.5 25.0321 2.65 
107.5 25.0321 2.65 112.5 25.0321 2.65 117.5 25.0321 2.65 
122.5 25.0321 2.65 127.5 25.0321 2.65 132.5 25.0321 2.65 
137.5 25.0321 2.65 145 25.0321 2.65 150 25.0321 2.65 
155 25.0321 2.65 160 25.0321 2.65 165 25.0321 2.65 
170 25.0321 2.65 142.5 25.0321 2.65 147.5 25.0321 2.65 
152.5 25.0321 2.65 157.5 25.0321 2.65 162.5 25.0321 2.65 
167.5 25.0321 2.65 172.5 25.0321 2.65 175 21.0321 2.65 
175 17.0321 2.65 175 13.0321 2.65 175 23.0321 2.65 
175 19.0321 2.65 175 15.0321 2.65 175 11.0321 2.65 
145 9.03214 2.65 150 9.03214 2.65 155 9.03214 2.65 
160 9.03214 2.65 165 9.03214 2.65 170 9.03214 2.65 
142.5 9.03214 2.65 147.5 9.03214 2.65 152.5 9.03214 2.65 
157.5 9.03214 2.65 162.5 9.03214 2.65 167.5 9.03214 2.65 
172.5 9.03214 2.65 -5.41e-15 25.0321 4.44089e-16 -5.41e-15 25.0321 -1.325 
-5.41e-15 25.0321 1.325 140 25.0321 4.44089e-16 140 25.0321 -1.325 
140 25.0321 1.325 175 25.0321 4.44089e-16 175 25.0321 -1.325 
175 25.0321 1.325 175 9.03214 4.44089e-16 175 9.03214 -1.325 
175 9.03214 1.325 -41.2549 -4.32223 1.64313e-14 -48.1073 -1.45713 -1.19904e-14 
-44.7701 -3.10256 0 -49.2719 -0.754596 -1.925 -49.2719 -0.754596 -8.88178e-16 
-47.4188 -1.83957 -1.925 -49.2719 -0.754596 1.925 -47.4188 -1.83957 1.925 
-39.9369 -4.65773 -1.925 -39.9369 -4.65773 1.33227e-14 -42.0108 -4.10074 -1.925 
-39.9369 -4.65773 1.925 -42.0108 -4.10074 1.925 -45.7533 -2.67064 -1.925 
-43.7721 -3.49901 -1.925 -46.4643 -2.33163 -5.77316e-15 -43.0315 -3.76694 8.43769e-15 
-43.7721 -3.49901 1.925 -45.7533 -2.67064 1.925 -39.0733 2.82494 -0.0766504 
-43.3301 1.76359 0.0638754 -46.9468 0.861847 0.459903 -35.4245 3.73467 -0.459903 
-48.6751 0.430923 0.229951 -48.6751 0.430923 -1.69505 -46.3707 1.00549 -1.69505 
-48.6751 0.430923 2.15495 -46.3707 1.00549 2.15495 -33.6962 4.16559 -2.15495 
-33.6962 4.16559 -0.229951 -36.0007 3.59103 -2.15495 -33.6962 4.16559 1.69505 
-36.0007 3.59103 1.69505 -44.5623 1.45636 -1.89306 -42.2579 2.03093 -1.89306 
-45.1385 1.31272 0.261889 -40.1295 2.5616 -1.96333 -37.825 3.13616 -1.96333 
-41.2017 2.29427 -0.00638754 -37.2489 3.27981 -0.268277 -42.2579 2.03093 1.95694 
-44.5623 1.45636 1.95694 -37.825 3.13616 1.88667 -40.1295 2.5616 1.88667 
-31.5421 -4.95953 0.0657693 -35.6168 -5.25121 0.00427972 -22.141 -0.578874 -2.28552 
-25.1594 -2.67227 0.00178181 -23.2395 -1.43756 0.00654266 -27.6134 -3.8467 0.00464565 
-21.9581 -0.423462 2.38124 -37.1169 -5.14838 -1.92286 -37.1169 -5.14838 0.00213986 
-34.7293 -5.25889 -1.92286 -37.1169 -5.14838 1.92714 -34.7293 -5.25889 1.92714 
-21.5605 -0.0722179 -2.46776 -21.5605 -0.0722179 -3.06776 -23.4234 -1.56971 -3.06776 
-21.5605 -0.0722179 -1.14276 -21.4719 0.00868762 3.11562 -21.4719 0.00868762 2.51562 
-21.4719 0.00868762 1.19062 -23.3258 -1.49995 3.11562 -22.6827 -1.01779 -1.13949 
-22.085 -0.53168 0.00327133 -22.5884 -0.943606 1.19389 -30.3349 -4.70904 -1.89212 
-32.6883 -5.12668 -1.89212 -33.572 -5.20968 0.0350245 -26.1701 -3.20601 -1.92268 
-28.374 -4.13122 -1.92268 -29.5493 -4.50364 0.0352075 -23.9989 -1.96332 -1.92173 
-24.1818 -2.08233 0.00416223 -24.97 -2.56389 -1.92411 -26.3664 -3.30126 0.00321373 
-30.3349 -4.70904 1.95788 -32.6883 -5.12668 1.95788 -26.1701 -3.20601 1.92732 
-28.374 -4.13122 1.92732 -24.97 -2.56389 1.92589 -23.9989 -1.96332 1.92827 
-21.031 20.0731 -3.85 -25.9958 25.8494 -3.85 -20.6037 13.6513 -3.85 
-33.248 28.5261 -3.85 -22.9077 7.02167 -3.85 -21.3522 26.695 -3.85 
-25.7982 3.10067 -3.85 -17.165 17.5074 -3.85 -37.8608 27.7182 -3.85 
-25.2708 22.1149 -3.85 -32.2675 -0.0625707 -3.85 -23.3943 16.8532 -3.85 
-28.9692 30.2261 -3.85 -18.076 24.4314 -3.85 -19.2237 9.74981 -3.85 
-36.6616 -0.967766 -3.85 -42.2047 26.3167 -3.85 -30.5663 25.6429 -3.85 
-24.5184 30.2944 -3.85 -23.5095 10.9343 -3.85 -16.8892 13.7856 -3.85 
-35.6245 30.8602 -3.85 -28.2855 -0.3653 -3.85 -45.8336 24.4401 -3.85 
-22.061 3.9218 -3.85 -32.3431 31.8332 -3.85 -16.2313 21.1662 -3.85 
-48.7943 22.4188 -3.85 -34.1641 25.3594 -3.85 -40.5331 -1.57878 -3.85 
-20.7494 29.8291 -3.85 -43.3989 -0.83894 -3.85 -24.5394 13.8074 -3.85 
-26.1878 18.8686 -3.85 -22.5607 23.7879 -3.85 -25.7913 8.12352 -3.85 
-28.7801 22.3382 -3.85 -39.4508 24.7375 -3.85 -19.8028 6.38462 -3.85 
-20.2597 16.8059 -3.85 -29.4033 2.68531 -3.85 -18.2854 27.9032 -3.85 
-46.2575 -0.527342 -3.85 -41.6468 -2.71914 -3.85 -39.569 -3.25596 -3.85 
-37.6333 -2.95046 -3.85 -35.2519 -3.09748 -3.85 -38.5974 -1.27327 -3.85 
-32.1177 2.26697 -3.85 -34.4221 1.69241 -3.85 -29.1981 5.08556 -3.85 
-30.6856 3.64091 -3.85 -30.8354 1.31137 -3.85 -21.5305 2.18911 -3.85 
-20.0832 3.81783 -3.85 -25.29 0.323605 -3.85 -23.3991 1.77854 -3.85 
-23.9296 3.51123 -3.85 -14.8049 16.4568 -3.85 -14.5914 18.635 -3.85 
-15.338 12.5229 -3.85 -14.667 14.5959 -3.85 -17.0271 15.6465 -3.85 
-19.3747 30.4306 -3.85 -21.2661 31.5476 -3.85 -16.6021 27.9131 -3.85 
-18.1427 29.4676 -3.85 -19.5174 28.8661 -3.85 -35.1591 32.6669 -3.85 
-37.2247 31.92 -3.85 -38.3429 30.349 -3.85 -40.2623 29.2702 -3.85 
-36.7427 29.2892 -3.85 -51.4195 20.8046 -3.85 -40.312 23.3103 -3.85 
-38.0076 23.8848 -3.85 -35.3643 24.1958 -3.85 -33.3726 23.6186 -3.85 
-37.2126 25.3752 -3.85 -36.0125 26.5388 -3.85 -38.6558 26.2278 -3.85 
-45.0596 -1.52138 -3.85 -43.0797 -2.34922 -3.85 -44.5967 0.155095 -3.85 
-41.966 -1.20886 -3.85 -23.1506 31.7802 -3.85 -25.2401 32.4573 -3.85 
-22.6339 30.0617 -3.85 -27.4655 32.4231 -3.85 -29.6525 32.6277 -3.85 
-26.7438 30.2602 -3.85 -31.3394 33.4313 -3.85 -33.5183 33.1534 -3.85 
-30.6561 31.0296 -3.85 -33.9838 31.3467 -3.85 -14.1245 20.4644 -3.85 
-14.5489 22.6115 -3.85 -16.6981 19.3368 -3.85 -15.4713 24.2441 -3.85 
-16.4975 26.1772 -3.85 -17.1536 22.7988 -3.85 -18.1807 26.1673 -3.85 
-42.2923 0.729659 -3.85 -36.6192 1.23981 -3.85 -38.9237 0.665246 -3.85 
-40.8594 0.359738 -3.85 -34.4646 -0.515168 -3.85 -18.9541 5.04924 -3.85 
-17.7442 6.86134 -3.85 -20.9319 5.15321 -3.85 -17.4547 8.54393 -3.85 
-16.5053 10.5051 -3.85 -19.5132 8.06722 -3.85 -18.0565 11.7677 -3.85 
-42.4342 28.5694 -3.85 -44.2235 27.2861 -3.85 -40.0327 27.0174 -3.85 
-46.0379 26.3478 -3.85 -47.6752 24.8756 -3.85 -44.0191 25.3784 -3.85 
-49.1556 23.8649 -3.85 -50.6212 22.2217 -3.85 -47.314 23.4295 -3.85 
-49.5927 21.0018 -3.85 -33.0549 -2.64488 -3.85 -30.7065 -2.2236 -3.85 
-28.7154 -2.37497 -3.85 -26.5337 -1.40938 -3.85 -30.2765 -0.213935 -3.85 
-27.0418 1.36768 -3.85 -47.2883 21.5764 -3.85 -45.8079 22.587 -3.85 
-43.5035 23.1615 -3.85 -41.689 24.0999 -3.85 -40.8277 25.5271 -3.85 
-26.6186 9.72856 -3.85 -27.3921 7.80466 -3.85 -27.3955 5.29324 -3.85 
-25.7947 5.61209 -3.85 -27.6008 2.89299 -3.85 -26.0662 14.6428 -3.85 
-25.9926 12.5705 -3.85 -25.4777 11.134 -3.85 -24.0245 12.3708 -3.85 
-24.6504 9.52891 -3.85 -27.7983 19.0376 -3.85 -26.8904 17.1734 -3.85 
-25.4936 16.1657 -3.85 -23.9669 15.3303 -3.85 -24.7911 17.8609 -3.85 
-30.6806 22.108 -3.85 -29.0945 20.7724 -3.85 -27.484 20.6034 -3.85 
-31.5737 23.7603 -3.85 -32.3652 25.5011 -3.85 -29.6732 23.9905 -3.85 
-19.098 18.7902 -3.85 -18.6311 20.6197 -3.85 -18.7123 17.1566 -3.85 
-20.6454 18.4395 -3.85 -23.1509 21.094 -3.85 -23.6094 19.4708 -3.85 
-25.7293 20.4917 -3.85 -23.9158 22.9514 -3.85 -21.7958 21.9305 -3.85 
-22.2127 18.4632 -3.85 -21.827 16.8296 -3.85 -19.5535 22.2523 -3.85 
-20.3183 24.1096 -3.85 -23.674 26.2722 -3.85 -25.2571 28.0719 -3.85 
-22.9353 28.4947 -3.85 -21.9564 25.2414 -3.85 -24.2782 24.8187 -3.85 
-25.6333 23.9822 -3.85 -27.0255 22.2265 -3.85 -27.388 24.0938 -3.85 
-27.4825 28.0377 -3.85 -28.2811 25.7462 -3.85 -29.7678 27.9345 -3.85 
-21.999 15.2523 -3.85 -22.5716 13.7293 -3.85 -20.4317 15.2286 -3.85 
-19.9137 11.7006 -3.85 -21.3666 10.3421 -3.85 -22.0566 12.2928 -3.85 
-18.7465 13.7184 -3.85 -18.5745 15.2957 -3.85 -35.5544 28.1221 -3.85 
-34.4363 29.6931 -3.85 -33.7061 26.9428 -3.85 -31.1086 29.3761 -3.85 
-31.9072 27.0845 -3.85 -32.7955 30.1796 -3.85 -24.353 5.06117 -3.85 
-22.4844 5.47174 -3.85 -24.3495 7.57259 -3.85 -21.0657 8.38574 -3.85 
-23.2086 8.97798 -3.85 -21.3552 6.70315 -3.85 -19.7141 25.5632 -3.85 
-19.8188 27.2991 -3.85 -21.0508 28.262 -3.85 -28.8444 1.16001 -3.85 
-21.031 20.0731 3.85 -25.9958 25.8494 3.85 -20.6037 13.6513 3.85 
-33.248 28.5261 3.85 -22.9077 7.02167 3.85 -21.3522 26.695 3.85 
-25.7982 3.10067 3.85 -17.165 17.5074 3.85 -37.8608 27.7182 3.85 
-25.2708 22.1149 3.85 -32.2675 -0.0625707 3.85 -23.3943 16.8532 3.85 
-28.9692 30.2261 3.85 -18.076 24.4314 3.85 -19.2237 9.74981 3.85 
-36.6616 -0.967766 3.85 -42.2047 26.3167 3.85 -30.5663 25.6429 3.85 
-24.5184 30.2944 3.85 -23.5095 10.9343 3.85 -16.8892 13.7856 3.85 
-35.6245 30.8602 3.85 -28.2855 -0.3653 3.85 -45.8336 24.4401 3.85 
-22.061 3.9218 3.85 -32.3431 31.8332 3.85 -16.2313 21.1662 3.85 
-48.7943 22.4188 3.85 -34.1641 25.3594 3.85 -40.5331 -1.57878 3.85 
-20.7494 29.8291 3.85 -43.3989 -0.83894 3.85 -24.5394 13.8074 3.85 
-26.1878 18.8686 3.85 -22.5607 23.7879 3.85 -25.7913 8.12352 3.85 
-28.7801 22.3382 3.85 -39.4508 24.7375 3.85 -19.8028 6.38462 3.85 
-20.2597 16.8059 3.85 -29.4033 2.68531 3.85 -18.2854 27.9032 3.85 
-46.2575 -0.527342 3.85 -39.569 -3.25596 3.85 -41.6468 -2.71914 3.85 
-35.2519 -3.09748 3.85 -37.6333 -2.95046 3.85 -38.5974 -1.27327 3.85 
-34.4221 1.69241 3.85 -32.1177 2.26697 3.85 -30.6856 3.64091 3.85 
-29.1981 5.08556 3.85 -30.8354 1.31137 3.85 -23.3991 1.77854 3.85 
-25.29 0.323605 3.85 -20.0832 3.81783 3.85 -21.5305 2.18911 3.85 
-23.9296 3.51123 3.85 -14.667 14.5959 3.85 -15.338 12.5229 3.85 
-14.5914 18.635 3.85 -14.8049 16.4568 3.85 -17.0271 15.6465 3.85 
-21.2661 31.5476 3.85 -19.3747 30.4306 3.85 -18.1427 29.4676 3.85 
-16.6021 27.9131 3.85 -19.5174 28.8661 3.85 -37.2247 31.92 3.85 
-35.1591 32.6669 3.85 -40.2623 29.2702 3.85 -38.3429 30.349 3.85 
-36.7427 29.2892 3.85 -51.4195 20.8046 3.85 -33.3726 23.6186 3.85 
-35.3643 24.1958 3.85 -38.0076 23.8848 3.85 -40.312 23.3103 3.85 
-36.0125 26.5388 3.85 -37.2126 25.3752 3.85 -38.6558 26.2278 3.85 
-43.0797 -2.34922 3.85 -45.0596 -1.52138 3.85 -44.5967 0.155095 3.85 
-41.966 -1.20886 3.85 -42.2923 0.729659 3.85 -38.9237 0.665246 3.85 
-36.6192 1.23981 3.85 -40.8594 0.359738 3.85 -34.4646 -0.515168 3.85 
-30.7065 -2.2236 3.85 -33.0549 -2.64488 3.85 -26.5337 -1.40938 3.85 
-28.7154 -2.37497 3.85 -30.2765 -0.213935 3.85 -27.0418 1.36768 3.85 
-17.7442 6.86134 3.85 -18.9541 5.04924 3.85 -20.9319 5.15321 3.85 
-16.5053 10.5051 3.85 -17.4547 8.54393 3.85 -19.5132 8.06722 3.85 
-18.0565 11.7677 3.85 -25.2401 32.4573 3.85 -23.1506 31.7802 3.85 
-22.6339 30.0617 3.85 -29.6525 32.6277 3.85 -27.4655 32.4231 3.85 
-26.7438 30.2602 3.85 -33.5183 33.1534 3.85 -31.3394 33.4313 3.85 
-30.6561 31.0296 3.85 -33.9838 31.3467 3.85 -44.2235 27.2861 3.85 
-42.4342 28.5694 3.85 -40.0327 27.0174 3.85 -47.6752 24.8756 3.85 
-46.0379 26.3478 3.85 -44.0191 25.3784 3.85 -50.6212 22.2217 3.85 
-49.1556 23.8649 3.85 -47.314 23.4295 3.85 -49.5927 21.0018 3.85 
-14.5489 22.6115 3.85 -14.1245 20.4644 3.85 -16.6981 19.3368 3.85 
-16.4975 26.1772 3.85 -15.4713 24.2441 3.85 -17.1536 22.7988 3.85 
-18.1807 26.1673 3.85 -27.3921 7.80466 3.85 -26.6186 9.72856 3.85 
-25.7947 5.61209 3.85 -27.3955 5.29324 3.85 -27.6008 2.89299 3.85 
-25.9926 12.5705 3.85 -26.0662 14.6428 3.85 -24.0245 12.3708 3.85 
-25.4777 11.134 3.85 -24.6504 9.52891 3.85 -26.8904 17.1734 3.85 
-27.7983 19.0376 3.85 -23.9669 15.3303 3.85 -25.4936 16.1657 3.85 
-24.7911 17.8609 3.85 -29.0945 20.7724 3.85 -30.6806 22.108 3.85 
-27.484 20.6034 3.85 -32.3652 25.5011 3.85 -31.5737 23.7603 3.85 
-29.6732 23.9905 3.85 -47.2883 21.5764 3.85 -43.5035 23.1615 3.85 
-45.8079 22.587 3.85 -41.689 24.0999 3.85 -40.8277 25.5271 3.85 
-18.6311 20.6197 3.85 -19.098 18.7902 3.85 -20.6454 18.4395 3.85 
-18.7123 17.1566 3.85 -25.7293 20.4917 3.85 -23.6094 19.4708 3.85 
-23.1509 21.094 3.85 -21.7958 21.9305 3.85 -23.9158 22.9514 3.85 
-22.2127 18.4632 3.85 -21.827 16.8296 3.85 -19.5535 22.2523 3.85 
-20.3183 24.1096 3.85 -22.9353 28.4947 3.85 -25.2571 28.0719 3.85 
-23.674 26.2722 3.85 -24.2782 24.8187 3.85 -21.9564 25.2414 3.85 
-25.6333 23.9822 3.85 -27.388 24.0938 3.85 -27.0255 22.2265 3.85 
-29.7678 27.9345 3.85 -28.2811 25.7462 3.85 -27.4825 28.0377 3.85 
-22.5716 13.7293 3.85 -21.999 15.2523 3.85 -20.4317 15.2286 3.85 
-22.0566 12.2928 3.85 -21.3666 10.3421 3.85 -19.9137 11.7006 3.85 
-18.7465 13.7184 3.85 -18.5745 15.2957 3.85 -34.4363 29.6931 3.85 
-35.5544 28.1221 3.85 -33.7061 26.9428 3.85 -31.9072 27.0845 3.85 
-31.1086 29.3761 3.85 -32.7955 30.1796 3.85 -22.4844 5.47174 3.85 
-24.353 5.06117 3.85 -24.3495 7.57259 3.85 -23.2086 8.97798 3.85 
-21.0657 8.38574 3.85 -21.3552 6.70315 3.85 -19.7141 25.5632 3.85 
-19.8188 27.2991 3.85 -21.0508 28.262 3.85 -28.8444 1.16001 3.85 
-33.8749 22.4556 -2.22045e-15 -29.8639 6.36825 -2.66454e-15 -30.5423 20.4338 2.22045e-15 
-28.3054 17.4375 0 -27.3022 13.4136 0 -27.8705 9.71787 1.77636e-15 
-30.8547 5.4097 3.9968e-15 -30.8547 5.4097 -1.925 -29.4085 6.91158 -1.925 
-30.8547 5.4097 1.925 -29.4085 6.91158 1.925 -33.2178 22.1896 -1.925 
-35.1997 22.8368 -1.925 -35.1997 22.8368 3.9968e-15 -35.1997 22.8368 1.925 
-33.2178 22.1896 1.925 -27.6244 10.5169 -1.925 -28.3617 8.56665 -1.925 
-28.7024 7.945 -4.44089e-16 -27.3936 14.4535 -1.925 -27.3196 12.3698 -1.925 
-27.4121 11.5389 8.88178e-16 -27.898 16.4765 -1.925 -28.8109 18.3509 -1.925 
-27.5929 15.4781 0 -29.9499 19.8439 -1.925 -31.5165 21.2197 -1.925 
-29.2826 19.0412 1.33227e-15 -32.1091 21.6086 0 -28.3617 8.56665 1.925 
-27.6244 10.5169 1.925 -27.3196 12.3698 1.925 -27.3936 14.4535 1.925 
-28.8109 18.3509 1.925 -27.898 16.4765 1.925 -31.5165 21.2197 1.925 
-29.9499 19.8439 1.925 -19.4966 2.03525 -3.25 -18.1054 3.71385 -3.25 
-13.0444 13.3101 -3.25 -13.7869 11.2603 -3.25 -15.6857 7.33806 -3.25 
-16.8331 5.48426 -3.25 -14.6687 9.26646 -3.25 -15.4955 4.72044 0 
-18.7981 2.41228 1.39541e-08 -2.94157 8.88757 1.39541e-08 -6.91581 8.22411 0 
-11.3418 6.80558 0 -19.9231 1.46139 6.97707e-09 -19.9231 1.46139 -1.325 
-18.1258 2.93728 -1.325 -19.9231 1.46139 1.325 -18.1258 2.93728 1.325 
-1.47256 8.99597 6.97707e-09 -1.47256 8.99597 -1.325 -3.7892 8.79187 -1.325 
-1.47256 8.99597 1.325 -3.7892 8.79187 1.325 -5.77913 8.47023 -1.325 
-8.0421 7.93412 -1.325 -4.93984 8.62264 6.97707e-09 -10.2567 7.22432 -1.325 
-12.4097 6.3451 -1.325 -9.1563 7.60069 0 -14.4882 5.30175 -1.325 
-16.4795 4.10053 -1.325 -13.4591 5.84357 0 -17.1856 3.62187 6.97707e-09 
-8.0421 7.93412 1.325 -5.77913 8.47023 1.325 -12.4097 6.3451 1.325 
-10.2567 7.22432 1.325 -16.4795 4.10053 1.325 -14.4882 5.30175 1.325 
-19.4966 2.03525 3.25 -18.1054 3.71385 3.25 -13.0444 13.3101 3.25 
-13.7869 11.2603 3.25 -16.8331 5.48426 3.25 -14.6687 9.26646 3.25 
-15.6857 7.33806 3.25 -12.0716 17.5687 -3.25 -12.0178 19.7626 -3.25 
-16.3454 29.5905 -3.25 -14.9189 27.923 -3.25 -12.8666 24.0567 -3.25 
-12.2847 21.9408 -3.25 -13.751 26.0651 -3.25 -31.792 34.9517 1.22855 
-32.945 34.8141 -1.52493 -35.702 34.2021 0.906444 -20.0092 32.3579 1.4553 
-20.5232 32.6444 -1.33987 -26.6168 34.7439 -0.932198 -29.4132 35.0235 -1.36693 
-28.5431 34.979 1.40038 -23.9066 34.0813 -1.70283 -25.369 34.4886 1.27206 
-22.8165 33.6975 1.23748 -36.3627 33.993 -1.70536 -19.2314 31.8855 -2.59494 
-19.2314 31.8855 -1.99494 -21.1475 32.9663 -2.59494 -35.5334 34.2514 -2.77768 
-37.6107 33.5275 -2.77768 -37.6107 33.5275 -0.852679 -18.9846 31.7253 2.05265 
-18.9846 31.7253 2.65265 -20.8846 32.8341 2.65265 -35.1996 34.3444 2.37822 
-37.2891 33.6565 2.37822 -37.2891 33.6565 0.453222 -19.2314 31.8855 -0.669936 
-18.9846 31.7253 0.727652 -22.833 33.7039 -2.77641 -24.927 34.3781 -2.77641 
-22.1818 33.4407 -1.52135 -29.8745 35.0317 -2.60846 -27.6788 34.897 -2.60846 
-26.2888 34.6848 -2.3911 -28.0101 34.9329 -1.14956 -25.2501 34.4599 -1.31751 
-31.6439 34.9645 -2.68746 -33.8231 34.6633 -2.68746 -31.1837 34.9971 -1.44593 
-34.6719 34.4788 -1.61514 -24.3702 34.2234 2.54374 -22.2966 33.489 2.54374 
-21.3868 33.0824 1.34639 -29.4389 35.0243 2.62519 -27.2466 34.8417 2.62519 
-25.6649 34.5567 2.56103 -26.9462 34.7976 1.33622 -24.0795 34.1357 1.25477 
-31.0646 35.0038 2.53928 -33.2516 34.766 2.53928 -30.1681 35.0314 1.31447 
-33.7657 34.6744 1.0675 -20.2651 32.503 0.0577155 -36.0333 34.1004 -0.399457 
-32.3695 34.8913 -0.148188 -34.3343 34.5568 -0.309243 -30.6037 35.023 -0.0691871 
-28.9779 35.006 0.0167255 -21.6532 33.2072 -0.0511966 -23.3588 33.8973 -0.232675 
-27.5771 34.8848 0.23409 -25.9908 34.6262 0.169933 -24.6339 34.2988 -0.215383 
-53.3429 20.859 1.02141e-14 -41.4101 31.5887 2.39808e-14 -50.6805 24.0924 2.22045e-15 
-47.9201 26.8284 0 -44.9072 29.2835 1.33227e-15 -40.1303 32.308 -1.925 
-42.0405 31.2112 -1.925 -40.1303 32.308 1.73195e-14 -54.1937 19.6625 -1.925 
-52.9008 21.4458 -1.925 -54.1937 19.6625 1.02141e-14 -40.1303 32.308 1.925 
-42.0405 31.2112 1.925 -54.1937 19.6625 1.925 -52.9008 21.4458 1.925 
-45.5802 28.7765 -1.925 -43.7986 30.0719 -1.925 -43.1889 30.4819 1.28786e-14 
-48.7289 26.0807 -1.925 -47.091 27.5535 -1.925 -46.4435 28.0926 4.44089e-16 
-50.1051 24.7078 -1.925 -51.5818 23.0735 -1.925 -49.3335 25.4939 1.33227e-15 
-52.0541 22.5105 6.21725e-15 -43.7986 30.0719 1.925 -45.5802 28.7765 1.925 
-47.091 27.5535 1.925 -48.7289 26.0807 1.925 -51.5818 23.0735 1.925 
-50.1051 24.7078 1.925 -43.6698 21.2606 -0.0766504 -47.9266 20.1992 -0.0894255 
-40.0211 22.1703 -0.459903 -51.5433 19.2975 -0.459903 -50.9672 19.4411 -2.15495 
-53.2717 18.8665 -2.15495 -53.2717 18.8665 -0.229951 -38.2927 22.6012 -2.15495 
-40.5972 22.0266 -2.15495 -38.2927 22.6012 -0.229951 -53.2717 18.8665 1.69505 
-50.9672 19.4411 1.69505 -38.2927 22.6012 1.69505 -40.5972 22.0266 1.69505 
-46.8544 20.4665 -1.96971 -49.1589 19.892 -1.96971 -49.735 19.7483 -0.274664 
-42.4215 21.5718 -1.96333 -44.726 20.9972 -1.96333 -45.7982 20.7299 -0.083038 
-41.8454 21.7154 -0.268277 -49.1589 19.892 1.88029 -46.8544 20.4665 1.88029 
-44.726 20.9972 1.88667 -42.4215 21.5718 1.88667 -12.0716 17.5687 3.25 
-12.0178 19.7626 3.25 -16.3454 29.5905 3.25 -14.9189 27.923 3.25 
-12.2847 21.9408 3.25 -13.751 26.0651 3.25 -12.8666 24.0567 3.25 
-4.96767 17.1073 -2.65 166.63 16.951 -2.65 27.5 17.0321 -2.65 
57.5 17.0321 -2.65 7.34563 17.2462 -2.65 37.5 17.0321 -2.65 
47.5 17.0321 -2.65 17.5 17.0321 -2.65 127.5 17.0321 -2.65 
147.5 17.0321 -2.65 157.383 17.0244 -2.65 67.5 17.0321 -2.65 
77.5 17.0321 -2.65 87.5 17.0321 -2.65 97.5 17.0321 -2.65 
107.5 17.0321 -2.65 117.5 17.0321 -2.65 137.5 17.0321 -2.65 
2.39537 15.2942 -2.65 -7.60416 12.7478 -2.65 142.5 14.204 -2.65 
122.5 19.8603 -2.65 32.5 19.8603 -2.65 42.5 19.8603 -2.65 
22.5 14.204 -2.65 62.5 19.8603 -2.65 72.5 19.8603 -2.65 
82.5 19.8603 -2.65 92.5 19.8603 -2.65 102.5 19.8603 -2.65 
152.5 19.8603 -2.65 52.5 14.204 -2.65 12.5 19.8603 -2.65 
112.5 14.204 -2.65 132.5 19.8603 -2.65 12.5 14.1576 -2.65 
32.5 14.1576 -2.65 132.5 14.1576 -2.65 52.5 19.9067 -2.65 
152.5 14.1576 -2.65 62.5 14.1576 -2.65 72.5 14.1576 -2.65 
102.5 14.1576 -2.65 112.5 19.9067 -2.65 42.5 14.1576 -2.65 
82.5 14.1576 -2.65 92.5 14.1576 -2.65 22.5 19.9067 -2.65 
122.5 14.1576 -2.65 142.5 19.9067 -2.65 162.199 13.928 -2.65 
162.279 20.1034 -2.65 2.55064 20.3464 -2.65 -7.11816 20.6428 -2.65 
171.058 18.8375 -2.65 170.988 14.1089 -2.65 -2.49308 21.078 -2.65 
-1.88519 13.178 -2.65 -8.80451 17.2056 -2.65 167.806 21.3669 -2.65 
17.5 21.4228 -2.65 137.5 21.4228 -2.65 7.47925 21.5034 -2.65 
27.5 21.4228 -2.65 37.5 21.4228 -2.65 57.5 21.4228 -2.65 
67.5 21.4228 -2.65 77.5 21.4228 -2.65 87.5 21.4228 -2.65 
97.5 21.4228 -2.65 107.5 21.4228 -2.65 127.5 21.4228 -2.65 
147.5 21.4228 -2.65 157.5 21.4228 -2.65 47.5 12.6415 -2.65 
17.5 12.6415 -2.65 47.5 21.4228 -2.65 117.5 21.4228 -2.65 
147.5 12.6415 -2.65 157.5 12.6415 -2.65 6.6235 12.728 -2.65 
27.5 12.6415 -2.65 37.5 12.6415 -2.65 57.5 12.6415 -2.65 
67.5 12.6415 -2.65 77.5 12.6415 -2.65 87.5 12.6415 -2.65 
97.5 12.6415 -2.65 107.5 12.6415 -2.65 117.5 12.6415 -2.65 
127.5 12.6415 -2.65 137.5 12.6415 -2.65 166.731 12.8452 -2.65 
-12.5419 8.50974 -2.65 -10.7478 10.662 -2.65 -0.881738 17.5109 -2.65 
-9.36649 23.277 -2.65 171.87 22.2452 -2.65 2.5 11.6059 -2.65 
172.747 11.3013 -2.65 -17.7721 3.5784 -2.65 -11.5963 13.0341 -2.65 
-12.2674 10.9611 -2.65 -10.4112 18.4841 -2.65 -10.6247 16.3059 -2.65 
-10.0245 14.077 -2.65 -8.20434 14.9767 -2.65 -9.17601 11.7049 -2.65 
-3.25948 10.925 -2.65 -0.942596 11.1051 -2.65 1.25 10.319 -2.65 
3.75 10.319 -2.65 0.307404 12.3919 -2.65 -14.4211 28.1909 -2.65 
-1.24654 23.055 -2.65 -3.64927 23.2487 -2.65 3.77532 22.6893 -2.65 
1.27532 22.6893 -2.65 0.0287795 20.7122 -2.65 138.75 23.2274 -2.65 
136.25 23.2274 -2.65 143.75 22.4694 -2.65 141.25 22.4694 -2.65 
140 20.6647 -2.65 173.435 23.6387 -2.65 170.935 23.6387 -2.65 
173.435 21.6387 -2.65 173.874 10.1667 -2.65 173.874 12.1667 -2.65 
171.374 10.1667 -2.65 141.25 11.6181 -2.65 143.75 11.6181 -2.65 
136.25 10.8368 -2.65 138.75 10.8368 -2.65 140 13.4228 -2.65 
-8.38023 10.1742 -2.65 -6.11896 10.7099 -2.65 -4.74468 12.9629 -2.65 
-13.0005 7.17666 -2.65 -10.8491 8.05521 -2.65 -9.95208 9.13133 -2.65 
-11.6449 9.58585 -2.65 -16.5623 5.3905 -2.65 -14.5724 6.59082 -2.65 
-14.1138 7.9239 -2.65 -13.1644 9.88503 -2.65 -11.1165 23.6668 -2.65 
-10.6921 21.5198 -2.65 -9.56798 20.2027 -2.65 -7.96134 18.9242 -2.65 
-8.24232 21.9599 -2.65 -13.3949 26.2577 -2.65 -11.1767 25.3142 -2.65 
-9.42666 24.9243 -2.65 -7.08598 24.3482 -2.65 -5.96181 23.0312 -2.65 
-4.80562 20.8604 -2.65 8.73963 23.2678 -2.65 6.23963 23.2678 -2.65 
5.01495 20.9249 -2.65 13.75 22.4462 -2.65 11.25 22.4462 -2.65 
9.98963 20.6818 -2.65 18.75 23.2274 -2.65 16.25 23.2274 -2.65 
15 20.6415 -2.65 23.75 22.4694 -2.65 21.25 22.4694 -2.65 
20 20.6647 -2.65 28.75 23.2274 -2.65 26.25 23.2274 -2.65 
25 20.6647 -2.65 33.75 22.4462 -2.65 31.25 22.4462 -2.65 
30 20.6415 -2.65 38.75 23.2274 -2.65 36.25 23.2274 -2.65 
35 20.6415 -2.65 43.75 22.4462 -2.65 41.25 22.4462 -2.65 
40 20.6415 -2.65 48.75 23.2274 -2.65 46.25 23.2274 -2.65 
45 20.6415 -2.65 53.75 22.4694 -2.65 51.25 22.4694 -2.65 
50 20.6647 -2.65 58.75 23.2274 -2.65 56.25 23.2274 -2.65 
55 20.6647 -2.65 63.75 22.4462 -2.65 61.25 22.4462 -2.65 
60 20.6415 -2.65 68.75 23.2274 -2.65 66.25 23.2274 -2.65 
65 20.6415 -2.65 73.75 22.4462 -2.65 71.25 22.4462 -2.65 
70 20.6415 -2.65 78.75 23.2274 -2.65 76.25 23.2274 -2.65 
75 20.6415 -2.65 83.75 22.4462 -2.65 81.25 22.4462 -2.65 
80 20.6415 -2.65 88.75 23.2274 -2.65 86.25 23.2274 -2.65 
85 20.6415 -2.65 93.75 22.4462 -2.65 91.25 22.4462 -2.65 
90 20.6415 -2.65 98.75 23.2274 -2.65 96.25 23.2274 -2.65 
95 20.6415 -2.65 103.75 22.4462 -2.65 101.25 22.4462 -2.65 
100 20.6415 -2.65 108.75 23.2274 -2.65 106.25 23.2274 -2.65 
105 20.6415 -2.65 113.75 22.4694 -2.65 111.25 22.4694 -2.65 
110 20.6647 -2.65 118.75 23.2274 -2.65 116.25 23.2274 -2.65 
115 20.6647 -2.65 123.75 22.4462 -2.65 121.25 22.4462 -2.65 
120 20.6415 -2.65 128.75 23.2274 -2.65 126.25 23.2274 -2.65 
125 20.6415 -2.65 133.75 22.4462 -2.65 131.25 22.4462 -2.65 
130 20.6415 -2.65 135 20.6415 -2.65 148.75 23.2274 -2.65 
146.25 23.2274 -2.65 145 20.6647 -2.65 153.75 22.4462 -2.65 
151.25 22.4462 -2.65 150 20.6415 -2.65 158.75 23.2274 -2.65 
156.25 23.2274 -2.65 155 20.6415 -2.65 163.639 22.5678 -2.65 
161.139 22.5678 -2.65 159.889 20.7631 -2.65 168.903 23.1995 -2.65 
166.403 23.1995 -2.65 165.042 20.7352 -2.65 169.838 21.806 -2.65 
173.029 17.9348 -2.65 173.029 19.9348 -2.65 171.464 20.5413 -2.65 
172.994 13.5705 -2.65 172.994 15.5705 -2.65 171.023 16.4732 -2.65 
171.868 12.7051 -2.65 146.25 10.8368 -2.65 148.75 10.8368 -2.65 
145 13.4228 -2.65 151.25 11.5949 -2.65 153.75 11.5949 -2.65 
150 13.3996 -2.65 156.25 10.8368 -2.65 158.75 10.8368 -2.65 
155 13.3996 -2.65 161.1 11.4801 -2.65 163.6 11.4801 -2.65 
159.85 13.2848 -2.65 165.866 10.9386 -2.65 168.366 10.9386 -2.65 
164.465 13.3866 -2.65 170.494 11.5705 -2.65 168.86 13.477 -2.65 
5.81175 10.8801 -2.65 8.31175 10.8801 -2.65 4.56175 12.167 -2.65 
11.25 11.5949 -2.65 13.75 11.5949 -2.65 9.56175 13.4428 -2.65 
16.25 10.8368 -2.65 18.75 10.8368 -2.65 15 13.3996 -2.65 
21.25 11.6181 -2.65 23.75 11.6181 -2.65 20 13.4228 -2.65 
26.25 10.8368 -2.65 28.75 10.8368 -2.65 25 13.4228 -2.65 
31.25 11.5949 -2.65 33.75 11.5949 -2.65 30 13.3996 -2.65 
36.25 10.8368 -2.65 38.75 10.8368 -2.65 35 13.3996 -2.65 
41.25 11.5949 -2.65 43.75 11.5949 -2.65 40 13.3996 -2.65 
46.25 10.8368 -2.65 48.75 10.8368 -2.65 45 13.3996 -2.65 
51.25 11.6181 -2.65 53.75 11.6181 -2.65 50 13.4228 -2.65 
56.25 10.8368 -2.65 58.75 10.8368 -2.65 55 13.4228 -2.65 
61.25 11.5949 -2.65 63.75 11.5949 -2.65 60 13.3996 -2.65 
66.25 10.8368 -2.65 68.75 10.8368 -2.65 65 13.3996 -2.65 
71.25 11.5949 -2.65 73.75 11.5949 -2.65 70 13.3996 -2.65 
76.25 10.8368 -2.65 78.75 10.8368 -2.65 75 13.3996 -2.65 
81.25 11.5949 -2.65 83.75 11.5949 -2.65 80 13.3996 -2.65 
86.25 10.8368 -2.65 88.75 10.8368 -2.65 85 13.3996 -2.65 
91.25 11.5949 -2.65 93.75 11.5949 -2.65 90 13.3996 -2.65 
96.25 10.8368 -2.65 98.75 10.8368 -2.65 95 13.3996 -2.65 
101.25 11.5949 -2.65 103.75 11.5949 -2.65 100 13.3996 -2.65 
106.25 10.8368 -2.65 108.75 10.8368 -2.65 105 13.3996 -2.65 
111.25 11.6181 -2.65 113.75 11.6181 -2.65 110 13.4228 -2.65 
116.25 10.8368 -2.65 118.75 10.8368 -2.65 115 13.4228 -2.65 
121.25 11.5949 -2.65 123.75 11.5949 -2.65 120 13.3996 -2.65 
126.25 10.8368 -2.65 128.75 10.8368 -2.65 125 13.3996 -2.65 
131.25 11.5949 -2.65 133.75 11.5949 -2.65 130 13.3996 -2.65 
135 13.3996 -2.65 -6.28592 14.9275 -2.65 -3.42643 15.1426 -2.65 
-6.8861 17.1564 -2.65 -6.04292 18.8751 -2.65 -3.73038 19.0926 -2.65 
-1.68741 19.2944 -2.65 -2.92471 17.3091 -2.65 -1.38346 15.3445 -2.65 
164.414 15.4395 -2.65 162.239 17.0157 -2.65 164.454 18.5272 -2.65 
166.68 14.8981 -2.65 167.218 19.1589 -2.65 168.844 17.8942 -2.65 
168.809 15.5299 -2.65 169.432 20.1022 -2.65 30 18.4462 -2.65 
32.5 17.0089 -2.65 30 15.5949 -2.65 27.5 19.2274 -2.65 
25 15.6181 -2.65 22.5 17.0553 -2.65 25 18.4694 -2.65 
27.5 14.8368 -2.65 60 18.4462 -2.65 62.5 17.0089 -2.65 
60 15.5949 -2.65 57.5 19.2274 -2.65 55 15.6181 -2.65 
52.5 17.0553 -2.65 55 18.4694 -2.65 57.5 14.8368 -2.65 
4.8705 16.2702 -2.65 2.47301 17.8203 -2.65 4.94813 18.7963 -2.65 
6.98456 14.9871 -2.65 4.50944 14.0111 -2.65 9.92281 18.5532 -2.65 
12.5 17.0089 -2.65 9.92281 15.7019 -2.65 7.41244 19.3748 -2.65 
35 18.4462 -2.65 35 15.5949 -2.65 37.5 19.2274 -2.65 
40 18.4462 -2.65 42.5 17.0089 -2.65 40 15.5949 -2.65 
37.5 14.8368 -2.65 45 18.4462 -2.65 45 15.5949 -2.65 
47.5 19.2274 -2.65 50 15.6181 -2.65 50 18.4694 -2.65 
47.5 14.8368 -2.65 20 15.6181 -2.65 20 18.4694 -2.65 
17.5 14.8368 -2.65 15 18.4462 -2.65 15 15.5949 -2.65 
17.5 19.2274 -2.65 125 18.4462 -2.65 125 15.5949 -2.65 
122.5 17.0089 -2.65 127.5 19.2274 -2.65 130 18.4462 -2.65 
132.5 17.0089 -2.65 130 15.5949 -2.65 127.5 14.8368 -2.65 
145 15.6181 -2.65 142.5 17.0553 -2.65 145 18.4694 -2.65 
147.5 14.8368 -2.65 150 18.4462 -2.65 152.5 17.0089 -2.65 
150 15.5949 -2.65 147.5 19.2274 -2.65 154.942 18.4423 -2.65 
154.942 15.591 -2.65 157.442 19.2236 -2.65 157.442 14.833 -2.65 
159.791 15.4762 -2.65 159.831 18.5639 -2.65 65 18.4462 -2.65 
65 15.5949 -2.65 67.5 19.2274 -2.65 70 18.4462 -2.65 
72.5 17.0089 -2.65 70 15.5949 -2.65 67.5 14.8368 -2.65 
75 18.4462 -2.65 75 15.5949 -2.65 77.5 19.2274 -2.65 
80 18.4462 -2.65 82.5 17.0089 -2.65 80 15.5949 -2.65 
77.5 14.8368 -2.65 85 18.4462 -2.65 85 15.5949 -2.65 
87.5 19.2274 -2.65 90 18.4462 -2.65 92.5 17.0089 -2.65 
90 15.5949 -2.65 87.5 14.8368 -2.65 95 18.4462 -2.65 
95 15.5949 -2.65 97.5 19.2274 -2.65 100 18.4462 -2.65 
102.5 17.0089 -2.65 100 15.5949 -2.65 97.5 14.8368 -2.65 
105 18.4462 -2.65 105 15.5949 -2.65 107.5 19.2274 -2.65 
110 15.6181 -2.65 110 18.4694 -2.65 112.5 17.0553 -2.65 
107.5 14.8368 -2.65 120 18.4462 -2.65 120 15.5949 -2.65 
117.5 19.2274 -2.65 115 15.6181 -2.65 115 18.4694 -2.65 
117.5 14.8368 -2.65 140 15.6181 -2.65 140 18.4694 -2.65 
137.5 14.8368 -2.65 135 18.4462 -2.65 135 15.5949 -2.65 
137.5 19.2274 -2.65 0.756817 16.4026 -2.65 0.834452 18.9287 -2.65 
0.25509 14.2361 -2.65 2.44769 13.4501 -2.65 22.5 9.03214 4.44089e-16 
17.5 9.03214 4.44089e-16 12.5 9.03214 -4.44089e-16 7.76031 9.03214 8.88178e-16 
27.5 9.03214 -4.44089e-16 37.5 9.03214 -8.88178e-16 42.5 9.03214 -3.10862e-15 
47.5 9.03214 -2.66454e-15 52.5 9.03214 3.10862e-15 57.5 9.03214 4.44089e-15 
62.5 9.03214 4.44089e-15 67.5 9.03214 4.44089e-15 72.5 9.03214 4.44089e-15 
77.5 9.03214 3.10862e-15 82.5 9.03214 -2.66454e-15 87.5 9.03214 -3.10862e-15 
92.5 9.03214 -3.10862e-15 97.5 9.03214 -3.10862e-15 102.5 9.03214 -3.10862e-15 
107.5 9.03214 -3.10862e-15 112.5 9.03214 -3.10862e-15 117.5 9.03214 -3.10862e-15 
122.5 9.03214 -3.10862e-15 127.5 9.03214 -3.10862e-15 132.24 9.03214 -2.66454e-15 
32.5 9.03214 -4.44089e-16 2.5 9.03214 -1.325 2.5 9.03214 1.325 
137.5 9.03214 -1.325 137.5 9.03214 1.325 5 9.03214 0 
135 9.03214 0 8.88015 9.03214 -1.325 6.38015 9.03214 -1.325 
6.38015 9.03214 1.325 13.75 9.03214 -1.325 11.25 9.03214 -1.325 
10.1302 9.03214 4.44089e-16 18.75 9.03214 -1.325 16.25 9.03214 -1.325 
15 9.03214 0 23.75 9.03214 -1.325 21.25 9.03214 -1.325 
20 9.03214 4.44089e-16 28.75 9.03214 -1.325 26.25 9.03214 -1.325 
25 9.03214 0 33.75 9.03214 -1.325 31.25 9.03214 -1.325 
30 9.03214 -4.44089e-16 38.75 9.03214 -1.325 36.25 9.03214 -1.325 
35 9.03214 -4.44089e-16 43.75 9.03214 -1.325 41.25 9.03214 -1.325 
40 9.03214 -2.22045e-15 48.75 9.03214 -1.325 46.25 9.03214 -1.325 
45 9.03214 -3.10862e-15 53.75 9.03214 -1.325 51.25 9.03214 -1.325 
50 9.03214 4.44089e-16 58.75 9.03214 -1.325 56.25 9.03214 -1.325 
55 9.03214 3.9968e-15 63.75 9.03214 -1.325 61.25 9.03214 -1.325 
60 9.03214 4.44089e-15 68.75 9.03214 -1.325 66.25 9.03214 -1.325 
65 9.03214 4.44089e-15 73.75 9.03214 -1.325 71.25 9.03214 -1.325 
70 9.03214 4.44089e-15 78.75 9.03214 -1.325 76.25 9.03214 -1.325 
75 9.03214 3.9968e-15 83.75 9.03214 -1.325 81.25 9.03214 -1.325 
80 9.03214 4.44089e-16 88.75 9.03214 -1.325 86.25 9.03214 -1.325 
85 9.03214 -3.10862e-15 93.75 9.03214 -1.325 91.25 9.03214 -1.325 
90 9.03214 -3.10862e-15 98.75 9.03214 -1.325 96.25 9.03214 -1.325 
95 9.03214 -3.10862e-15 103.75 9.03214 -1.325 101.25 9.03214 -1.325 
100 9.03214 -3.10862e-15 108.75 9.03214 -1.325 106.25 9.03214 -1.325 
105 9.03214 -3.10862e-15 113.75 9.03214 -1.325 111.25 9.03214 -1.325 
110 9.03214 -3.10862e-15 118.75 9.03214 -1.325 116.25 9.03214 -1.325 
115 9.03214 -3.10862e-15 123.75 9.03214 -1.325 121.25 9.03214 -1.325 
120 9.03214 -3.10862e-15 128.75 9.03214 -1.325 126.25 9.03214 -1.325 
125 9.03214 -3.10862e-15 133.62 9.03214 -1.325 131.12 9.03214 -1.325 
129.87 9.03214 -3.10862e-15 133.62 9.03214 1.325 8.88015 9.03214 1.325 
11.25 9.03214 1.325 13.75 9.03214 1.325 16.25 9.03214 1.325 
18.75 9.03214 1.325 21.25 9.03214 1.325 23.75 9.03214 1.325 
26.25 9.03214 1.325 28.75 9.03214 1.325 31.25 9.03214 1.325 
33.75 9.03214 1.325 36.25 9.03214 1.325 38.75 9.03214 1.325 
41.25 9.03214 1.325 43.75 9.03214 1.325 46.25 9.03214 1.325 
48.75 9.03214 1.325 51.25 9.03214 1.325 53.75 9.03214 1.325 
56.25 9.03214 1.325 58.75 9.03214 1.325 61.25 9.03214 1.325 
63.75 9.03214 1.325 66.25 9.03214 1.325 68.75 9.03214 1.325 
71.25 9.03214 1.325 73.75 9.03214 1.325 76.25 9.03214 1.325 
78.75 9.03214 1.325 81.25 9.03214 1.325 83.75 9.03214 1.325 
86.25 9.03214 1.325 88.75 9.03214 1.325 91.25 9.03214 1.325 
93.75 9.03214 1.325 96.25 9.03214 1.325 98.75 9.03214 1.325 
101.25 9.03214 1.325 103.75 9.03214 1.325 106.25 9.03214 1.325 
108.75 9.03214 1.325 111.25 9.03214 1.325 113.75 9.03214 1.325 
116.25 9.03214 1.325 118.75 9.03214 1.325 121.25 9.03214 1.325 
123.75 9.03214 1.325 126.25 9.03214 1.325 128.75 9.03214 1.325 
131.12 9.03214 1.325 -4.58144 17.078 2.65 166.63 16.951 2.65 
12.6976 17.0244 2.65 22.5 17.0321 2.65 32.5 17.0321 2.65 
42.5 17.0321 2.65 52.5 17.0321 2.65 62.5 17.0321 2.65 
157.383 17.0244 2.65 72.5 17.0321 2.65 82.5 17.0321 2.65 
92.5 17.0321 2.65 102.5 17.0321 2.65 112.5 17.0321 2.65 
122.5 17.0321 2.65 131.955 17.0231 2.65 148.045 17.0231 2.65 
3.773 17.0243 2.65 139.964 16.8685 2.65 -7.73741 12.7215 2.65 
107.5 19.8603 2.65 57.5 19.8603 2.65 27.5 19.8603 2.65 
47.5 19.8603 2.65 152.59 20.1503 2.65 117.5 14.204 2.65 
67.5 19.8603 2.65 77.5 19.8603 2.65 87.5 19.8603 2.65 
97.5 19.8603 2.65 17.5 19.8603 2.65 37.5 14.204 2.65 
127.394 20.1514 2.65 127.373 14.0184 2.65 152.613 14.0175 2.65 
17.5 14.1576 2.65 57.5 14.1576 2.65 67.5 14.1576 2.65 
77.5 14.1576 2.65 87.5 14.1576 2.65 97.5 14.1576 2.65 
37.5 19.9067 2.65 27.5 14.1576 2.65 47.5 14.1576 2.65 
107.5 14.1576 2.65 117.5 19.9067 2.65 162.199 13.928 2.65 
162.279 20.1034 2.65 -7.23615 20.7798 2.65 7.94007 20.1032 2.65 
7.94043 13.9685 2.65 171.058 18.8375 2.65 -0.318332 19.6696 2.65 
170.988 14.1089 2.65 -0.231475 14.7111 2.65 135.879 19.2263 2.65 
144.109 19.2263 2.65 143.558 13.8284 2.65 135.734 14.6277 2.65 
-8.7896 17.247 2.65 167.806 21.3669 2.65 22.5 21.4228 2.65 
32.5 21.4228 2.65 42.5 21.4228 2.65 52.5 21.4228 2.65 
72.5 21.4228 2.65 82.5 21.4228 2.65 92.5 21.4228 2.65 
102.5 21.4228 2.65 112.5 21.4228 2.65 122.479 21.4309 2.65 
157.45 21.4685 2.65 12.5 12.6415 2.65 22.5 12.6415 2.65 
12.5 21.4228 2.65 32.5 12.6415 2.65 42.5 12.6415 2.65 
52.5 12.6415 2.65 62.5 12.6415 2.65 72.5 12.6415 2.65 
82.5 12.6415 2.65 92.5 12.6415 2.65 102.5 12.6415 2.65 
112.5 12.6415 2.65 122.5 12.6415 2.65 62.5 21.4228 2.65 
157.457 12.6167 2.65 166.731 12.8452 2.65 147.949 21.2928 2.65 
132.046 21.293 2.65 148.091 12.8263 2.65 131.909 12.8263 2.65 
-12.5419 8.50974 2.65 -3.80489 12.5152 2.65 3.5171 21.1678 2.65 
3.67233 12.922 2.65 -3.58726 21.9288 2.65 -10.7548 10.6606 2.65 
-9.63531 23.2427 2.65 139.093 12.7098 2.65 171.87 22.2452 2.65 
140 21.3219 2.65 172.747 11.3013 2.65 -17.7721 3.5784 2.65 
-1.90244 10.7737 2.65 -4.21932 10.5937 2.65 4.33617 10.9771 2.65 
1.83617 10.9771 2.65 -2.01818 13.6132 2.65 -0.115737 11.8716 2.65 
1.72043 13.8165 2.65 -12.2708 10.9605 2.65 -11.5998 13.0334 2.65 
-10.6172 16.3266 2.65 -10.4037 18.5048 2.65 -8.26351 14.9843 2.65 
-10.0911 14.0639 2.65 -9.2461 11.6911 2.65 -14.4211 28.1909 2.65 
139.547 10.871 2.65 137.047 10.871 2.65 144.279 11.4302 2.65 
141.779 11.4302 2.65 141.326 13.2691 2.65 -4.19636 23.6741 2.65 
-1.79363 23.4804 2.65 1.75855 23.1 2.65 4.25855 23.1 2.65 
1.59939 20.4187 2.65 -0.159166 22.3509 2.65 -1.95279 20.7992 2.65 
137.5 23.177 2.65 140 23.177 2.65 142.5 23.177 2.65 
173.435 23.6387 2.65 173.435 21.6387 2.65 170.935 23.6387 2.65 
173.874 12.1667 2.65 173.874 10.1667 2.65 171.374 10.1667 2.65 
-6.18559 10.6968 2.65 -8.44686 10.1611 2.65 -5.77115 12.6184 2.65 
-10.8491 8.05521 2.65 -13.0005 7.17666 2.65 -9.95554 9.13064 2.65 
-11.6483 9.58517 2.65 -16.5623 5.3905 2.65 -14.5724 6.59082 2.65 
-14.1138 7.9239 2.65 -13.1644 9.88503 2.65 -10.8266 21.5027 2.65 
-11.2509 23.6497 2.65 -8.01287 19.0134 2.65 -9.62697 20.2712 2.65 
-8.43573 22.0112 2.65 -13.3949 26.2577 2.65 -11.1767 25.3142 2.65 
-9.56107 24.9072 2.65 8.97021 11.5003 2.65 6.47021 11.5003 2.65 
5.80638 13.4453 2.65 13.75 10.8368 2.65 11.25 10.8368 2.65 
10.2202 13.305 2.65 18.75 11.5949 2.65 16.25 11.5949 2.65 
15 13.3996 2.65 23.75 10.8368 2.65 21.25 10.8368 2.65 
20 13.3996 2.65 28.75 11.5949 2.65 26.25 11.5949 2.65 
25 13.3996 2.65 33.75 10.8368 2.65 31.25 10.8368 2.65 
30 13.3996 2.65 38.75 11.6181 2.65 36.25 11.6181 2.65 
35 13.4228 2.65 43.75 10.8368 2.65 41.25 10.8368 2.65 
40 13.4228 2.65 48.75 11.5949 2.65 46.25 11.5949 2.65 
45 13.3996 2.65 53.75 10.8368 2.65 51.25 10.8368 2.65 
50 13.3996 2.65 58.75 11.5949 2.65 56.25 11.5949 2.65 
55 13.3996 2.65 63.75 10.8368 2.65 61.25 10.8368 2.65 
60 13.3996 2.65 68.75 11.5949 2.65 66.25 11.5949 2.65 
65 13.3996 2.65 73.75 10.8368 2.65 71.25 10.8368 2.65 
70 13.3996 2.65 78.75 11.5949 2.65 76.25 11.5949 2.65 
75 13.3996 2.65 83.75 10.8368 2.65 81.25 10.8368 2.65 
80 13.3996 2.65 88.75 11.5949 2.65 86.25 11.5949 2.65 
85 13.3996 2.65 93.75 10.8368 2.65 91.25 10.8368 2.65 
90 13.3996 2.65 98.75 11.5949 2.65 96.25 11.5949 2.65 
95 13.3996 2.65 103.75 10.8368 2.65 101.25 10.8368 2.65 
100 13.3996 2.65 108.75 11.5949 2.65 106.25 11.5949 2.65 
105 13.3996 2.65 113.75 10.8368 2.65 111.25 10.8368 2.65 
110 13.3996 2.65 118.75 11.6181 2.65 116.25 11.6181 2.65 
115 13.4228 2.65 123.75 10.8368 2.65 121.25 10.8368 2.65 
120 13.4228 2.65 128.687 11.5253 2.65 126.187 11.5253 2.65 
124.937 13.3299 2.65 133.454 10.9292 2.65 130.954 10.9292 2.65 
129.641 13.4223 2.65 133.822 13.727 2.65 135.367 11.8299 2.65 
137.414 13.6688 2.65 -7.22039 24.3311 2.65 -5.4117 21.3543 2.65 
-6.02081 23.0996 2.65 6.47004 22.5677 2.65 8.97004 22.5677 2.65 
5.72859 20.6355 2.65 11.25 23.2274 2.65 13.75 23.2274 2.65 
10.22 20.763 2.65 16.25 22.4462 2.65 18.75 22.4462 2.65 
15 20.6415 2.65 21.25 23.2274 2.65 23.75 23.2274 2.65 
20 20.6415 2.65 26.25 22.4462 2.65 28.75 22.4462 2.65 
25 20.6415 2.65 31.25 23.2274 2.65 33.75 23.2274 2.65 
30 20.6415 2.65 36.25 22.4694 2.65 38.75 22.4694 2.65 
35 20.6647 2.65 41.25 23.2274 2.65 43.75 23.2274 2.65 
40 20.6647 2.65 46.25 22.4462 2.65 48.75 22.4462 2.65 
45 20.6415 2.65 51.25 23.2274 2.65 53.75 23.2274 2.65 
50 20.6415 2.65 56.25 22.4462 2.65 58.75 22.4462 2.65 
55 20.6415 2.65 61.25 23.2274 2.65 63.75 23.2274 2.65 
60 20.6415 2.65 66.25 22.4462 2.65 68.75 22.4462 2.65 
65 20.6415 2.65 71.25 23.2274 2.65 73.75 23.2274 2.65 
70 20.6415 2.65 76.25 22.4462 2.65 78.75 22.4462 2.65 
75 20.6415 2.65 81.25 23.2274 2.65 83.75 23.2274 2.65 
80 20.6415 2.65 86.25 22.4462 2.65 88.75 22.4462 2.65 
85 20.6415 2.65 91.25 23.2274 2.65 93.75 23.2274 2.65 
90 20.6415 2.65 96.25 22.4462 2.65 98.75 22.4462 2.65 
95 20.6415 2.65 101.25 23.2274 2.65 103.75 23.2274 2.65 
100 20.6415 2.65 106.25 22.4462 2.65 108.75 22.4462 2.65 
105 20.6415 2.65 111.25 23.2274 2.65 113.75 23.2274 2.65 
110 20.6415 2.65 116.25 22.4694 2.65 118.75 22.4694 2.65 
115 20.6647 2.65 121.239 23.2315 2.65 123.739 23.2315 2.65 
119.989 20.6688 2.65 126.197 22.5918 2.65 128.697 22.5918 2.65 
124.936 20.7912 2.65 131.023 23.1626 2.65 133.523 23.1626 2.65 
129.72 20.7222 2.65 133.962 20.2597 2.65 135.439 22.1292 2.65 
137.939 20.2741 2.65 173.029 19.9348 2.65 173.029 17.9348 2.65 
171.464 20.5413 2.65 172.994 15.5705 2.65 172.994 13.5705 2.65 
171.023 16.4732 2.65 171.868 12.7051 2.65 146.474 23.1625 2.65 
148.974 23.1625 2.65 146.029 20.2596 2.65 144.555 22.1292 2.65 
142.055 20.2741 2.65 151.295 22.5912 2.65 153.795 22.5912 2.65 
150.269 20.7216 2.65 156.225 23.2503 2.65 158.725 23.2503 2.65 
155.02 20.8094 2.65 161.139 22.5678 2.65 163.639 22.5678 2.65 
159.865 20.786 2.65 166.403 23.1995 2.65 168.903 23.1995 2.65 
165.042 20.7352 2.65 169.838 21.806 2.65 149.046 10.9292 2.65 
146.546 10.9292 2.65 145.825 13.3273 2.65 153.807 11.5248 2.65 
151.307 11.5248 2.65 150.352 13.4219 2.65 158.728 10.8244 2.65 
156.228 10.8244 2.65 155.035 13.3171 2.65 163.6 11.4801 2.65 
161.1 11.4801 2.65 159.828 13.2724 2.65 168.366 10.9386 2.65 
165.866 10.9386 2.65 164.465 13.3866 2.65 168.86 13.477 2.65 
170.494 11.5705 2.65 -6.68552 17.1625 2.65 -6.15942 14.8997 2.65 
-4.19316 14.7966 2.65 -5.90879 18.9289 2.65 -4.08435 19.5034 2.65 
-2.40646 15.8945 2.65 -0.274903 17.1903 2.65 -2.44988 18.3738 2.65 
164.454 18.5272 2.65 162.239 17.0157 2.65 164.414 15.4395 2.65 
166.68 14.8981 2.65 167.218 19.1589 2.65 168.809 15.5299 2.65 
168.844 17.8942 2.65 169.432 20.1022 2.65 15.0988 15.591 2.65 
17.5 17.0089 2.65 15.0988 18.4423 2.65 12.5988 19.2236 2.65 
12.5988 14.833 2.65 7.94025 17.0359 2.65 10.319 15.4965 2.65 
10.3188 18.5638 2.65 25 15.5949 2.65 27.5 17.0089 2.65 
25 18.4462 2.65 22.5 19.2274 2.65 20 15.5949 2.65 
20 18.4462 2.65 22.5 14.8368 2.65 30 15.5949 2.65 
30 18.4462 2.65 32.5 19.2274 2.65 37.5 17.0553 2.65 
35 18.4694 2.65 35 15.6181 2.65 32.5 14.8368 2.65 
45 15.5949 2.65 47.5 17.0089 2.65 45 18.4462 2.65 
42.5 19.2274 2.65 40 18.4694 2.65 40 15.6181 2.65 
42.5 14.8368 2.65 55 15.5949 2.65 57.5 17.0089 2.65 
55 18.4462 2.65 52.5 19.2274 2.65 50 15.5949 2.65 
50 18.4462 2.65 52.5 14.8368 2.65 60 15.5949 2.65 
60 18.4462 2.65 62.5 19.2274 2.65 65 15.5949 2.65 
67.5 17.0089 2.65 65 18.4462 2.65 62.5 14.8368 2.65 
152.601 17.0839 2.65 154.998 15.5209 2.65 154.987 18.5874 2.65 
157.417 19.2464 2.65 157.42 14.8206 2.65 159.831 18.5639 2.65 
159.791 15.4762 2.65 70 15.5949 2.65 70 18.4462 2.65 
72.5 19.2274 2.65 75 15.5949 2.65 77.5 17.0089 2.65 
75 18.4462 2.65 72.5 14.8368 2.65 80 15.5949 2.65 
80 18.4462 2.65 82.5 19.2274 2.65 85 15.5949 2.65 
87.5 17.0089 2.65 85 18.4462 2.65 82.5 14.8368 2.65 
90 15.5949 2.65 90 18.4462 2.65 92.5 19.2274 2.65 
95 15.5949 2.65 97.5 17.0089 2.65 95 18.4462 2.65 
92.5 14.8368 2.65 105 15.5949 2.65 107.5 17.0089 2.65 
105 18.4462 2.65 102.5 19.2274 2.65 100 15.5949 2.65 
100 18.4462 2.65 102.5 14.8368 2.65 110 15.5949 2.65 
110 18.4462 2.65 112.5 19.2274 2.65 117.5 17.0553 2.65 
115 18.4694 2.65 115 15.6181 2.65 112.5 14.8368 2.65 
120 18.4694 2.65 120 15.6181 2.65 122.5 14.8368 2.65 
124.937 15.5253 2.65 127.383 17.0849 2.65 124.947 18.5918 2.65 
122.489 19.2315 2.65 129.664 15.5207 2.65 129.674 18.5873 2.65 
132 19.1581 2.65 131.932 14.9247 2.65 133.845 15.8254 2.65 
135.807 16.927 2.65 133.917 18.1247 2.65 150.329 15.5203 2.65 
150.317 18.5867 2.65 147.997 19.158 2.65 148.068 14.9247 2.65 
143.834 16.5273 2.65 145.802 15.4257 2.65 146.077 18.1247 2.65 
5.85672 15.4964 2.65 5.85654 18.5638 2.65 3.64505 19.0961 2.65 
3.72267 14.9731 2.65 1.77076 15.8677 2.65 1.72734 18.347 2.65 
137.849 15.7481 2.65 137.921 18.0474 2.65 139.982 19.0952 2.65 
141.761 15.3484 2.65 142.037 18.0474 2.65 139.529 14.7892 2.65 
-3.05112 25.1877 3.83229e-09 -7.16933 25.9014 0 -11.743 27.4259 0 
-15.4658 29.3259 3.83228e-09 -16.7546 30.1467 1.91614e-09 -16.7546 30.1467 -1.325 
-14.7009 28.881 -1.325 -16.7546 30.1467 1.325 -14.7009 28.881 1.325 
-3.93 25.2907 -1.325 -1.52754 25.0711 -1.325 -1.52754 25.0711 1.91614e-09 
-1.52754 25.0711 1.325 -3.93 25.2907 1.325 -12.8435 27.9204 -1.325 
-10.6235 26.9761 -1.325 -13.6375 28.311 1.91614e-09 -5.99225 25.6367 -1.325 
-8.33482 26.2132 -1.325 -9.48683 26.5716 0 -5.12267 25.4727 1.91614e-09 
-10.6235 26.9761 1.325 -12.8435 27.9204 1.325 -8.33482 26.2132 1.325 
-5.99225 25.6367 1.325 62.5 25.0321 0 12.5 25.0321 4.44089e-16 
22.5 25.0321 0 7.76031 25.0321 4.44089e-16 17.5 25.0321 -4.44089e-16 
27.5 25.0321 4.44089e-16 32.5 25.0321 -2.66454e-15 37.5 25.0321 -1.77636e-15 
47.5 25.0321 -2.22045e-15 52.5 25.0321 3.10862e-15 57.5 25.0321 2.66454e-15 
67.5 25.0321 4.44089e-16 72.5 25.0321 3.10862e-15 77.5 25.0321 3.10862e-15 
82.5 25.0321 -2.66454e-15 87.5 25.0321 -3.10862e-15 92.5 25.0321 -3.10862e-15 
97.5 25.0321 -3.10862e-15 102.5 25.0321 -3.10862e-15 107.5 25.0321 -3.10862e-15 
112.5 25.0321 -3.10862e-15 117.5 25.0321 -3.10862e-15 122.5 25.0321 -3.10862e-15 
127.5 25.0321 -3.10862e-15 132.24 25.0321 -2.66454e-15 42.5 25.0321 -4.44089e-16 
2.5 25.0321 -1.325 137.5 25.0321 -1.325 2.5 25.0321 1.325 
137.5 25.0321 1.325 6.38015 25.0321 -1.325 8.88015 25.0321 -1.325 
5 25.0321 0 6.38015 25.0321 1.325 11.25 25.0321 -1.325 
13.75 25.0321 -1.325 10.1302 25.0321 4.44089e-16 16.25 25.0321 -1.325 
18.75 25.0321 -1.325 15 25.0321 0 21.25 25.0321 -1.325 
23.75 25.0321 -1.325 20 25.0321 -4.44089e-16 26.25 25.0321 -1.325 
28.75 25.0321 -1.325 25 25.0321 4.44089e-16 31.25 25.0321 -1.325 
33.75 25.0321 -1.325 30 25.0321 -1.33227e-15 36.25 25.0321 -1.325 
38.75 25.0321 -1.325 35 25.0321 -2.22045e-15 41.25 25.0321 -1.325 
43.75 25.0321 -1.325 40 25.0321 -1.33227e-15 46.25 25.0321 -1.325 
48.75 25.0321 -1.325 45 25.0321 -1.33227e-15 51.25 25.0321 -1.325 
53.75 25.0321 -1.325 50 25.0321 4.44089e-16 56.25 25.0321 -1.325 
58.75 25.0321 -1.325 55 25.0321 3.10862e-15 61.25 25.0321 -1.325 
63.75 25.0321 -1.325 60 25.0321 1.33227e-15 66.25 25.0321 -1.325 
68.75 25.0321 -1.325 65 25.0321 4.44089e-16 71.25 25.0321 -1.325 
73.75 25.0321 -1.325 70 25.0321 1.77636e-15 76.25 25.0321 -1.325 
78.75 25.0321 -1.325 75 25.0321 3.10862e-15 81.25 25.0321 -1.325 
83.75 25.0321 -1.325 80 25.0321 4.44089e-16 86.25 25.0321 -1.325 
88.75 25.0321 -1.325 85 25.0321 -3.10862e-15 91.25 25.0321 -1.325 
93.75 25.0321 -1.325 90 25.0321 -3.10862e-15 96.25 25.0321 -1.325 
98.75 25.0321 -1.325 95 25.0321 -3.10862e-15 101.25 25.0321 -1.325 
103.75 25.0321 -1.325 100 25.0321 -3.10862e-15 106.25 25.0321 -1.325 
108.75 25.0321 -1.325 105 25.0321 -3.10862e-15 111.25 25.0321 -1.325 
113.75 25.0321 -1.325 110 25.0321 -3.10862e-15 116.25 25.0321 -1.325 
118.75 25.0321 -1.325 115 25.0321 -3.10862e-15 121.25 25.0321 -1.325 
123.75 25.0321 -1.325 120 25.0321 -3.10862e-15 126.25 25.0321 -1.325 
128.75 25.0321 -1.325 125 25.0321 -3.10862e-15 131.12 25.0321 -1.325 
133.62 25.0321 -1.325 129.87 25.0321 -3.10862e-15 135 25.0321 0 
133.62 25.0321 1.325 8.88015 25.0321 1.325 13.75 25.0321 1.325 
11.25 25.0321 1.325 18.75 25.0321 1.325 16.25 25.0321 1.325 
23.75 25.0321 1.325 21.25 25.0321 1.325 28.75 25.0321 1.325 
26.25 25.0321 1.325 33.75 25.0321 1.325 31.25 25.0321 1.325 
38.75 25.0321 1.325 36.25 25.0321 1.325 43.75 25.0321 1.325 
41.25 25.0321 1.325 48.75 25.0321 1.325 46.25 25.0321 1.325 
53.75 25.0321 1.325 51.25 25.0321 1.325 58.75 25.0321 1.325 
56.25 25.0321 1.325 63.75 25.0321 1.325 61.25 25.0321 1.325 
68.75 25.0321 1.325 66.25 25.0321 1.325 73.75 25.0321 1.325 
71.25 25.0321 1.325 78.75 25.0321 1.325 76.25 25.0321 1.325 
83.75 25.0321 1.325 81.25 25.0321 1.325 88.75 25.0321 1.325 
86.25 25.0321 1.325 93.75 25.0321 1.325 91.25 25.0321 1.325 
98.75 25.0321 1.325 96.25 25.0321 1.325 103.75 25.0321 1.325 
101.25 25.0321 1.325 108.75 25.0321 1.325 106.25 25.0321 1.325 
113.75 25.0321 1.325 111.25 25.0321 1.325 118.75 25.0321 1.325 
116.25 25.0321 1.325 123.75 25.0321 1.325 121.25 25.0321 1.325 
128.75 25.0321 1.325 126.25 25.0321 1.325 131.12 25.0321 1.325 
152.5 25.0321 0 157.5 25.0321 0 162.5 25.0321 0 
167.24 25.0321 8.88178e-16 147.76 25.0321 -4.44089e-16 142.5 25.0321 -1.325 
172.5 25.0321 -1.325 142.5 25.0321 1.325 172.5 25.0321 1.325 
146.38 25.0321 -1.325 148.88 25.0321 -1.325 145 25.0321 0 
146.38 25.0321 1.325 151.25 25.0321 -1.325 153.75 25.0321 -1.325 
150.13 25.0321 -4.44089e-16 156.25 25.0321 -1.325 158.75 25.0321 -1.325 
155 25.0321 0 161.25 25.0321 -1.325 163.75 25.0321 -1.325 
160 25.0321 0 166.12 25.0321 -1.325 168.62 25.0321 -1.325 
164.87 25.0321 4.44089e-16 170 25.0321 0 168.62 25.0321 1.325 
148.88 25.0321 1.325 153.75 25.0321 1.325 151.25 25.0321 1.325 
158.75 25.0321 1.325 156.25 25.0321 1.325 163.75 25.0321 1.325 
161.25 25.0321 1.325 166.12 25.0321 1.325 175 19.0321 0 
175 15.0321 0 175 22.3527 0 175 11.7115 4.44089e-16 
175 23.6924 -1.325 175 21.6924 -1.325 175 23.6924 4.44089e-16 
175 12.3718 -1.325 175 10.3718 -1.325 175 10.3718 4.44089e-16 
175 21.6924 1.325 175 23.6924 1.325 175 10.3718 1.325 
175 12.3718 1.325 175 20.0321 -1.325 175 18.0321 -1.325 
175 20.6924 0 175 16.0321 -1.325 175 14.0321 -1.325 
175 17.0321 0 175 13.3718 4.44089e-16 175 18.0321 1.325 
175 20.0321 1.325 175 14.0321 1.325 175 16.0321 1.325 
147.76 9.03214 4.44089e-16 152.5 9.03214 8.88178e-16 157.5 9.03214 0 
162.5 9.03214 0 167.24 9.03214 8.88178e-16 172.5 9.03214 -1.325 
142.5 9.03214 -1.325 142.5 9.03214 1.325 172.5 9.03214 1.325 
145 9.03214 0 148.88 9.03214 -1.325 146.38 9.03214 -1.325 
146.38 9.03214 1.325 153.75 9.03214 -1.325 151.25 9.03214 -1.325 
150.13 9.03214 4.44089e-16 158.75 9.03214 -1.325 156.25 9.03214 -1.325 
155 9.03214 4.44089e-16 163.75 9.03214 -1.325 161.25 9.03214 -1.325 
160 9.03214 0 168.62 9.03214 -1.325 166.12 9.03214 -1.325 
164.87 9.03214 4.44089e-16 170 9.03214 0 168.62 9.03214 1.325 
148.88 9.03214 1.325 151.25 9.03214 1.325 153.75 9.03214 1.325 
156.25 9.03214 1.325 158.75 9.03214 1.325 161.25 9.03214 1.325 
163.75 9.03214 1.325 166.12 9.03214 1.325 -21.3908 28.8777 4.44089e-16 
-26.536 30.4945 0 -33.7272 30.4813 0 -22.5295 14.7899 -4.44089e-16 
-21.5288 5.70057 -4.44089e-16 -40.0113 26.9509 0 -18.7043 12.5527 0 
-29.9452 0.756635 1.33227e-15 -16.8756 28.6145 -1.925 -16.7709 26.8787 -1.925 
-18.4283 29.1018 1.91614e-09 -19.7334 26.6545 -1.925 -19.8381 28.3904 -1.925 
-16.8756 28.6145 1.925 -16.7709 26.8787 1.925 -19.8381 28.3904 1.925 
-19.7334 26.6545 1.925 -20.3183 24.1096 0 -22.5607 23.7879 0 
-21.9757 26.3328 1.925 -21.9757 26.3328 -1.925 -21.7958 21.9305 0 
-29.6732 23.9905 0 -28.2811 25.7462 0 -27.388 24.0938 0 
-28.7801 22.3382 0 -29.6612 21.386 -1.925 -30.5543 23.0384 1.925 
-29.6612 21.386 1.925 -28.5512 28.0687 1.925 -28.5512 28.0687 -1.925 
-30.5663 25.6429 0 -32.1468 28.0621 1.925 -32.1468 28.0621 -1.925 
-30.1316 30.4879 0 -23.9158 22.9514 0 -27.0255 22.2265 0 
-21.031 20.0731 0 -22.2127 18.4632 0 -21.7803 17.4315 -1.925 
-22.9619 15.8216 -1.925 -21.7803 17.4315 1.925 -24.2782 24.8187 0 
-23.6933 27.3636 -1.925 -25.69 10.3261 1.925 -25.69 10.3261 -1.925 
-23.5095 10.9343 0 -22.5192 8.31743 1.925 -22.5192 8.31743 -1.925 
-24.6997 7.70922 6.66134e-16 -23.1509 21.094 0 -25.2708 22.1149 0 
-21.1069 11.7435 1.925 -21.1069 11.7435 -1.925 -20.1166 9.12666 -2.22045e-16 
-32.2206 24.0492 1.925 -34.0195 23.9075 1.925 -33.9457 27.9203 1.925 
-33.801 26.4684 -1.11022e-15 -34.0195 23.9075 -1.925 -32.2206 24.0492 -1.925 
-33.9457 27.9203 -1.925 -23.6094 19.4708 0 -25.7293 20.4917 0 
-30.5543 23.0384 -1.925 -25.6333 23.9822 0 -21.3715 27.7863 -1.925 
-21.3715 27.7863 1.925 -27.9066 21.2744 -1.925 -18.076 24.4314 0 
-17.1536 22.7988 0 -16.2313 21.1662 0 -18.6311 20.6197 0 
-19.5535 22.2523 0 -27.9066 21.2744 1.925 -25.9958 25.8494 0 
-14.9189 27.923 0 -16.4975 26.1772 3.25 -16.4975 26.1772 0.6 
-13.8927 25.9898 0 -15.4713 24.2441 3.25 -33.4876 29.5037 -1.925 
-33.4876 29.5037 1.925 -15.4713 24.2441 -3.25 -14.5489 22.6115 -3.25 
-12.8666 24.0567 0 -14.5489 22.6115 -0.6 -15.4713 24.2441 -0.6 
-26.1878 18.8686 0 -16.4975 26.1772 -3.25 -38.8391 -1.0541 -0.0383252 
-40.1641 -0.748643 -0.0383252 -40.894 -2.95051 1.925 -39.8032 0.62308 1.88667 
-39.569 -3.25596 1.925 -39.8032 0.62308 -1.96333 -39.569 -3.25596 -1.925 
-40.894 -2.95051 -1.925 -26.2659 28.1719 -1.925 -27.7526 30.3603 -1.925 
-31.3482 30.3537 -1.925 -27.7526 30.3603 1.925 -31.3482 30.3537 1.925 
-23.6933 27.3636 1.925 -20.6454 18.4395 0 -20.2597 16.8059 0 
-21.3946 15.7979 1.925 -21.3946 15.7979 -1.925 -27.2466 18.1531 -1.925 
-27.2466 18.1531 1.925 -25.4175 16.1137 -2.22045e-16 -24.3587 16.8293 1.925 
-24.3587 16.8293 -1.925 -15.1923 28.6244 1.325 -15.1923 28.6244 -1.325 
-19.482 14.6793 1.925 -19.482 14.6793 -1.925 -20.6169 13.6713 -2.22045e-16 
-35.3643 24.1958 -1.925 -37.2126 25.3752 -1.925 -35.1458 26.7567 5.10703e-15 
-35.794 29.0997 -1.925 -37.2126 25.3752 1.925 -35.3643 24.1958 1.925 
-35.794 29.0997 1.925 -18.7123 17.1566 0 -27.5396 32.7367 0.700189 
-27.9746 32.759 -0.683464 -29.164 32.7231 0.614276 -23.0195 12.8621 -1.925 
-23.0195 12.8621 1.925 -26.8309 8.92069 -1.925 -27.8276 7.24588 -1.925 
-23.6601 6.91204 -1.925 -25.6963 6.03441 -1.55431e-15 -27.8276 7.24588 1.925 
-26.8309 8.92069 1.925 -23.6601 6.91204 1.925 -16.6981 19.3368 0 
-14.5489 22.6115 3.25 -18.6073 6.51932 -1.325 -18.6073 6.51932 1.325 
-15.6857 7.33806 0 -17.195 9.9454 -1.325 -17.195 9.9454 1.325 
-25.4058 12.1739 -1.925 -25.4058 12.1739 1.925 -24.9158 14.1017 -2.22045e-16 
-26.2659 28.1719 1.925 -23.3991 1.77854 -1.925 -23.9696 1.2609 -3.06776 
-24.5188 0.831551 -1.92173 -25.7982 3.10067 0 -23.3991 1.77854 1.925 
-23.6635 4.40062 -1.925 -21.2644 3.0785 0 -23.6635 4.40062 1.925 
-24.5188 0.831551 1.92827 -21.5305 2.18911 -1.925 -21.7949 4.81119 -1.925 
-21.5305 2.18911 1.925 -21.7949 4.81119 1.925 -19.098 18.7902 0 
-31.5702 32.7524 -0.683464 -32.7596 32.7165 0.614276 -16.6021 27.9131 3.25 
-14.1245 20.4644 3.25 -14.1245 20.4644 -0.6 -14.5914 18.635 3.25 
-12.4422 21.9096 0 -14.1245 20.4644 -3.25 -14.5914 18.635 -3.25 
-12.0178 19.7626 0 -14.5914 18.635 -0.6 -38.936 27.3345 1.925 
-38.2878 24.9915 5.10703e-15 -36.8692 28.7161 0 -38.936 27.3345 -1.925 
-16.6021 27.9131 -3.25 -23.8781 1.3386 3.11562 -37.8675 0.928588 1.88667 
-37.6333 -2.95046 1.925 -18.1427 29.4676 -1.925 -19.6954 29.9549 4.44089e-16 
-18.1427 29.4676 1.925 -37.6333 -2.95046 -1.925 -37.8675 0.928588 -1.96333 
-17.165 17.5074 0 -43.5559 27.8001 1.925 -42.9372 23.7886 1.88667 
-44.2885 25.2721 -0.0383252 -42.4592 28.1172 6.66134e-16 -41.8405 24.1057 -0.0383252 
-41.108 26.6338 1.925 -22.101 1.67146 -3.06776 -42.9372 23.7886 -1.96333 
-43.5559 27.8001 -1.925 -41.108 26.6338 -1.925 -21.5305 2.18911 -3.25 
-26.7881 19.7762 1.925 -17.9346 15.0301 1.925 -27.831 4.73446 -1.925 
-27.831 4.73446 1.925 -14.1138 7.9239 0 -14.7363 9.29918 0 
-12.5419 8.50974 0 -13.1644 9.88503 0 -22.0096 1.74917 3.11562 
-37.2247 31.92 -1.925 -38.3429 30.349 -1.925 -36.2761 31.7306 5.10703e-15 
-34.6759 30.6707 -1.925 -38.3429 30.349 1.925 -37.2247 31.92 1.925 
-34.6759 30.6707 1.925 -45.7949 24.0445 -0.0383252 -45.3704 26.8618 1.925 
-44.7517 22.8503 1.88667 -46.8769 25.6342 1.925 -22.2183 6.36112 1.925 
-22.2183 6.36112 -1.925 -31.9048 -2.51105 1.95788 -31.9048 -2.51105 -1.89212 
-32.2675 -0.0625707 0 -31.1064 0.347032 1.925 -31.1064 0.347032 -1.925 
-30.7437 -2.10145 0.0328846 -44.7517 22.8503 -1.96333 -46.8769 25.6342 -1.925 
-45.3704 26.8618 -1.925 -12.2313 17.5844 0 -14.8049 16.4568 -0.6 
-33.9422 -2.65689 1.92714 -33.9422 -2.65689 -1.92286 -21.5305 2.18911 3.25 
-20.3763 7.72519 -1.925 -18.964 11.1513 -1.925 -20.3763 7.72519 1.925 
-18.964 11.1513 1.925 -17.4547 8.54393 -3.25 -17.4547 8.54393 3.25 
-41.9316 0.0924054 1.95694 -42.2925 -1.27932 0.0319377 -41.9316 0.0924054 -1.89306 
-32.644 33.3237 -2.68746 -30.8781 33.4284 -2.60846 -33.0351 31.1572 -1.925 
-33.3361 32.6477 -0.762465 -23.9634 29.6861 2.22045e-16 -34.4646 -0.515168 0 
-36.1392 -3.10949 1.92714 -36.6616 -0.967766 0 -36.1392 -3.10949 -1.92286 
-29.1912 32.6248 -2.60846 171.868 12.7051 0 171.374 10.1667 0 
172.747 11.3013 0 -14.8049 16.4568 3.25 -14.667 14.5959 3.25 
-17.7968 13.1692 1.925 -15.5746 13.9795 1.325 -14.8049 16.4568 -3.25 
-12.4448 15.4062 0 -27.8717 1.92865 -1.925 -27.8717 1.92865 1.925 
-26.5923 -0.340465 0.00327133 -13.7869 11.2603 0 -13.1158 13.3333 0 
-16.2456 11.9065 -1.325 -16.2456 11.9065 1.325 -14.667 14.5959 -3.25 
-17.7968 13.1692 -1.925 -17.9346 15.0301 -1.925 -15.5746 13.9795 -1.325 
-15.5906 6.02925 1.325 -15.5906 6.02925 -1.325 -18.5122 5.21051 -2.22045e-16 
-35.9936 32.4266 -2.77768 -35.045 32.2372 -0.852679 -39.4181 29.9654 5.10703e-15 
-33.846 1.83605 1.69505 -33.846 1.83605 -2.15495 -32.6849 2.24565 -0.229951 
-36.0431 1.38345 1.69505 -36.0431 1.38345 -2.15495 -49.7374 23.2556 -1.925 
-48.3572 24.6236 -1.925 -49.3036 22.1458 -0.0447128 -47.9234 23.5138 -0.0447128 
-48.3605 21.309 -1.96971 -29.9045 3.56244 -6.66134e-16 -25.9208 13.6105 1.925 
-23.5345 14.2986 1.925 -25.0612 15.134 1.925 -25.9208 13.6105 -1.925 
-25.0612 15.134 -1.925 -23.5345 14.2986 -1.925 -28.3651 19.6512 1.925 
-22.9619 15.8216 1.925 -13.3309 27.6745 -1.325 -13.3309 27.6745 1.325 
-12.3048 25.7413 1.325 -42.3269 -2.58058 -1.925 -43.3645 0.462327 -1.89306 
-17.7442 6.86134 -3.25 -20.6658 6.0426 -1.925 -17.7442 6.86134 3.25 
-20.6658 6.0426 1.925 -15.338 12.5229 3.25 173.874 11.5064 -1.325 
173.874 11.5064 1.325 172.994 12.9102 -1.325 -42.3269 -2.58058 1.925 
-43.3645 0.462327 1.95694 -13.5137 7.07182 -1.325 -11.9418 7.65766 -1.325 
-11.9418 7.65766 1.325 -12.3048 25.7413 -1.325 -15.338 12.5229 -3.25 
173.029 16.9348 1.325 173.029 18.9348 1.325 173.029 18.9348 -1.325 
171.058 18.8375 0 173.029 16.9348 -1.325 -18.9541 5.04924 -3.25 
-19.8171 4.70721 -1.325 173.435 22.299 1.325 173.435 20.6387 1.325 
171.87 22.2452 0 173.435 20.6387 -1.325 173.435 22.299 -1.325 
168.844 17.8942 0 171.023 16.4732 0 172.994 14.5705 -1.325 
-20.957 30.761 -0.669936 -22.6487 31.4795 -0.851415 -22.1036 31.2876 0.61874 
-46.8801 22.3196 -1.96971 -18.9541 5.04924 3.25 -19.8171 4.70721 1.325 
-11.6483 9.58517 0 -10.6247 16.3059 0 -8.79706 17.2263 0 
-8.27096 14.9636 0 -46.8801 22.3196 1.88029 -16.8004 4.21715 -1.325 
170.494 11.5705 0 170.988 14.1089 0 -20.4296 3.16704 -1.925 
-20.1635 4.05643 6.97707e-09 -20.4296 3.16704 1.925 -28.3651 19.6512 -1.925 
167.523 23.1995 1.325 165.153 23.1995 1.325 165.153 23.1995 -1.325 
167.806 21.3669 0 167.523 23.1995 -1.325 168.809 15.5299 0 
-44.0845 -1.97075 -1.925 -44.0501 -0.669482 0.0319377 134.773 21.3579 0 
132.143 23.1626 1.325 134.87 23.2274 -1.325 132.37 22.4462 -1.325 
132.273 20.5766 0 171.464 20.5413 0 -12.2708 10.9605 0 
172.994 14.5705 1.325 -16.8004 4.21715 1.325 -44.0845 -1.97075 1.925 
-26.7224 -1.51878 -1.92411 -25.7625 -0.901432 -1.92173 -26.7224 -1.51878 1.92589 
-25.7625 -0.901432 1.92827 166.63 16.951 0 -35.6633 32.5311 2.37822 
-34.7146 32.3417 0.453222 150.224 23.1625 1.325 147.855 23.1625 1.325 
147.63 23.2274 -1.325 147.724 21.3578 0 150 23.2274 -1.325 
-24.2125 32.1878 -2.77641 -22.5208 31.4694 -2.59494 -22.9546 29.586 -1.925 
-29.6336 4.52678 -1.925 -29.6742 1.72097 -1.925 -29.6336 4.52678 1.925 
-29.6742 1.72097 1.925 166.985 10.9386 1.325 166.985 10.9386 -1.325 
166.731 12.8452 0 168.86 13.477 0 169.114 11.5705 -1.325 
-21.5666 14.2206 -1.925 -19.654 13.102 -1.925 -21.5666 14.2206 1.925 
-19.654 13.102 1.925 169.838 21.806 0 -25.2213 32.2879 -0.851415 
-24.6763 32.096 0.61874 -9.62697 20.2712 0 -10.4037 18.5048 0 
-21.783 31.7633 2.54374 -20.3793 31.0935 2.65265 -21.0701 29.3534 1.925 
-20.7 30.6178 0.727652 136.25 23.2274 0 -22.9546 29.586 1.925 
-25.5272 30.3944 1.925 -25.5272 30.3944 -1.925 -7.14374 23.2721 -1.325 
-5.08464 22.9153 -1.325 -3.31919 23.5582 1.325 -5.35271 21.2858 0 
-5.37829 23.9151 1.325 157.5 10.8368 -1.325 157.478 12.6291 0 
157.478 10.8244 1.325 159.978 10.8244 1.325 160 10.8368 -1.325 
159.975 23.2503 1.325 157.475 23.2503 1.325 157.5 23.2274 -1.325 
157.475 21.4456 0 160 23.2274 -1.325 147.926 10.9292 1.325 
150.296 10.9292 1.325 150 10.8368 -1.325 147.796 12.7339 0 
147.63 10.8368 -1.325 12.5 10.8368 1.325 10.1302 10.8368 1.325 
11.25 10.8368 0 169.114 11.5705 1.325 -10.7513 10.6613 0 
-11.5963 13.0341 0 -9.24263 11.6918 0 132.074 10.9292 1.325 
133.987 11.8299 1.325 132.37 11.5949 -1.325 134.117 14.3927 0 
132.204 13.4919 0 169.555 23.6387 1.325 169.555 23.6387 -1.325 
154.978 10.8244 1.325 155 10.8368 -1.325 9.98963 23.2678 -1.325 
7.61978 23.2678 -1.325 9.98963 21.4631 0 10.1302 23.2274 1.325 
12.5 23.2274 1.325 154.975 23.2503 1.325 155 23.2274 -1.325 
166.68 14.8981 0 150.224 20.5765 0 152.5 22.4462 -1.325 
-10.0911 14.0639 0 129.773 23.1626 1.325 129.87 23.2274 -1.325 
127.5 23.2274 -1.325 129.773 21.3579 0 124.989 23.2315 1.325 
122.489 23.2315 1.325 125 23.2274 -1.325 124.989 21.4268 0 
-13.5137 7.07182 1.325 -6.87864 17.1771 0 -4.77456 17.0926 0 
-6.35254 14.9144 0 62.5 10.8368 1.325 65 10.8368 1.325 
67.5 10.8368 -1.325 65 12.6415 0 65 10.8368 -1.325 
72.5 10.8368 1.325 75 10.8368 1.325 77.5 10.8368 -1.325 
75 12.6415 0 75 10.8368 -1.325 100 10.8368 1.325 
102.5 10.8368 1.325 97.5 10.8368 -1.325 100 10.8368 -1.325 
100 12.6415 0 90 10.8368 1.325 92.5 10.8368 1.325 
90 10.8368 -1.325 90 12.6415 0 87.5 10.8368 -1.325 
80 10.8368 1.325 82.5 10.8368 1.325 80 10.8368 -1.325 
80 12.6415 0 85 10.8368 1.325 85 10.8368 -1.325 
85 12.6415 0 70 10.8368 1.325 70 10.8368 -1.325 
70 12.6415 0 95 10.8368 1.325 95 12.6415 0 
95 10.8368 -1.325 17.5 10.8368 -1.325 15 10.8368 -1.325 
15 10.8368 1.325 15 12.6415 0 57.5 10.8368 -1.325 
55 10.8368 -1.325 55 10.8368 1.325 52.5 10.8368 1.325 
55 12.6415 0 40 10.8368 -1.325 37.5 10.8368 -1.325 
42.5 10.8368 1.325 40 10.8368 1.325 40 12.6415 0 
60 10.8368 1.325 60 12.6415 0 60 10.8368 -1.325 
105 10.8368 1.325 105 10.8368 -1.325 107.5 10.8368 -1.325 
105 12.6415 0 20 10.8368 -1.325 22.5 10.8368 1.325 
20 10.8368 1.325 20 12.6415 0 27.5 10.8368 -1.325 
25 10.8368 -1.325 25 10.8368 1.325 25 12.6415 0 
35 10.8368 -1.325 32.5 10.8368 1.325 35 12.6415 0 
35 10.8368 1.325 50 10.8368 -1.325 47.5 10.8368 -1.325 
50 10.8368 1.325 50 12.6415 0 125 10.8368 1.325 
125 12.6415 0 127.5 10.8368 -1.325 125 10.8368 -1.325 
122.5 10.8368 1.325 164.414 15.4395 0 162.239 17.0157 0 
164.454 18.5272 0 120 10.8368 1.325 120 10.8368 -1.325 
120 12.6415 0 117.5 10.8368 -1.325 30 10.8368 -1.325 
30 10.8368 1.325 30 12.6415 0 112.5 10.8368 1.325 
110 10.8368 1.325 110 12.6415 0 110 10.8368 -1.325 
15 23.2274 -1.325 17.5 23.2274 -1.325 15 23.2274 1.325 
15 21.4228 0 20 23.2274 -1.325 22.5 23.2274 1.325 
20 21.4228 0 20 23.2274 1.325 110 23.2274 1.325 
112.5 23.2274 1.325 110 21.4228 0 110 23.2274 -1.325 
107.5 23.2274 -1.325 45 10.8368 -1.325 45 12.6415 0 
45 10.8368 1.325 75 23.2274 1.325 72.5 23.2274 1.325 
75 23.2274 -1.325 75 21.4228 0 77.5 23.2274 -1.325 
30 23.2274 -1.325 27.5 23.2274 -1.325 30 21.4228 0 
30 23.2274 1.325 32.5 23.2274 1.325 85 23.2274 1.325 
82.5 23.2274 1.325 85 23.2274 -1.325 85 21.4228 0 
87.5 23.2274 -1.325 80 23.2274 1.325 80 21.4228 0 
80 23.2274 -1.325 57.5 23.2274 -1.325 55 23.2274 -1.325 
55 21.4228 0 52.5 23.2274 1.325 55 23.2274 1.325 
45 23.2274 -1.325 47.5 23.2274 -1.325 45 23.2274 1.325 
45 21.4228 0 42.5 23.2274 1.325 40 23.2274 -1.325 
37.5 23.2274 -1.325 40 21.4228 0 40 23.2274 1.325 
90 23.2274 1.325 92.5 23.2274 1.325 90 21.4228 0 
90 23.2274 -1.325 65 23.2274 1.325 62.5 23.2274 1.325 
65 23.2274 -1.325 65 21.4228 0 67.5 23.2274 -1.325 
60 23.2274 1.325 60 21.4228 0 60 23.2274 -1.325 
70 23.2274 1.325 70 21.4228 0 70 23.2274 -1.325 
95 23.2274 1.325 95 21.4228 0 97.5 23.2274 -1.325 
95 23.2274 -1.325 25 23.2274 -1.325 25 23.2274 1.325 
25 21.4228 0 102.5 23.2274 1.325 105 23.2274 1.325 
105 21.4228 0 105 23.2274 -1.325 50 23.2274 -1.325 
50 21.4228 0 50 23.2274 1.325 100 23.2274 1.325 
100 21.4228 0 100 23.2274 -1.325 35 23.2274 -1.325 
35 23.2274 1.325 35 21.4228 0 115 10.8368 1.325 
115 12.6415 0 115 10.8368 -1.325 115 23.2274 1.325 
115 23.2274 -1.325 115 21.4228 0 117.5 23.2274 -1.325 
119.989 23.2315 1.325 120 23.2274 -1.325 119.989 21.4268 0 
-11.2509 23.6497 0 -10.8266 21.5027 0 134.87 10.8368 -1.325 
136.617 13.6346 0 136.25 10.8368 0 129.704 12.7339 0 
129.87 10.8368 -1.325 129.704 10.9292 1.325 -34.3529 32.9131 -2.77768 
159.791 15.4762 0 157.383 17.0244 0 159.831 18.5639 0 
152.5 11.5949 -1.325 150.296 13.4919 0 157.417 19.2464 0 
159.865 20.786 0 -11.0483 8.73309 1.325 152.557 11.5248 1.325 
155.057 13.3295 0 -7.67079 12.7346 0 -41.1129 24.2435 -2.15495 
-40.0162 24.5606 -0.229951 169.432 20.1022 0 147.724 19.1625 0 
170.935 23.6387 0 10.1302 11.5949 -1.325 12.5 13.3996 0 
-3.04017 21.5034 0 -4.27747 19.518 0 -26.5764 32.6192 -0.466099 
-7.25999 10.4859 -1.325 -5.70452 12.6315 0 -5.36035 10.3697 1.325 
-3.37323 10.7014 1.325 -5.27287 10.8177 -1.325 152.545 22.5912 1.325 
155.045 20.7865 0 154.987 18.5874 0 162.389 22.5678 -1.325 
-41.1129 24.2435 1.69505 157.42 14.8206 0 154.998 15.5209 0 
152.557 16.9389 0 150.272 18.4417 0 150.272 15.5904 0 
152.557 14.0875 0 173.874 13.1667 -1.325 173.874 13.1667 1.325 
159.85 13.2848 0 162.389 22.5678 1.325 165.042 20.7352 0 
167.218 19.1589 0 -3.53726 19.078 0 147.772 17.0276 0 
162.35 11.4801 1.325 -2.7721 23.1328 -1.325 10.2202 14.0631 0 
7.85037 11.5003 1.325 -5.8498 18.8604 0 164.465 13.3866 0 
162.199 13.928 0 162.279 20.1034 0 -26.2489 32.5573 1.925 
-25.9525 32.4915 0.636032 -30.4431 33.4061 2.62519 -32.0676 33.3924 2.53928 
-32.1177 2.26697 1.925 -30.9565 2.67658 5.77316e-15 147.796 14.9292 0 
-8.30132 22.0284 0 -9.5009 23.2599 0 -7.95388 18.9449 0 
-18.4517 3.06307 -1.325 -7.17715 20.7113 0 173.874 10.1667 1.325 
173.874 10.1667 -1.325 -49.7374 23.2556 1.925 -48.3572 24.6236 1.925 
172.994 12.9102 1.325 -2.73159 17.2944 0 -1.40571 20.3738 0 
-0.600035 18.5903 0 146.25 23.2274 0 136.689 20.3245 0 
134.189 19.5433 0 -38.0076 23.8848 -1.925 -39.731 25.8442 -1.925 
-38.0076 23.8848 1.925 -39.731 25.8442 1.925 122.5 22.4462 -1.325 
122.489 20.6456 0 -39.6355 29.6534 -1.925 -40.7107 29.2698 1.19904e-14 
-39.6355 29.6534 1.925 164.616 10.9386 -1.325 164.616 10.9386 1.325 
52.5 11.6181 -1.325 52.5 13.4228 0 37.5 11.6181 1.325 
37.5 13.4228 0 22.5 11.6181 -1.325 22.5 13.4228 0 
-3.23331 15.128 0 117.5 11.6181 1.325 117.5 13.4228 0 
17.5 20.6415 0 17.5 22.4462 1.325 112.5 13.4228 0 
112.5 11.6181 -1.325 42.5 22.4462 -1.325 42.5 20.6415 0 
82.5 22.4462 -1.325 82.5 20.6415 0 107.5 22.4462 1.325 
107.5 20.6415 0 57.5 20.6415 0 57.5 22.4462 1.325 
62.5 20.6415 0 62.5 22.4462 -1.325 92.5 20.6415 0 
92.5 22.4462 -1.325 72.5 22.4462 -1.325 72.5 20.6415 0 
97.5 22.4462 1.325 97.5 20.6415 0 87.5 22.4462 1.325 
87.5 20.6415 0 27.5 22.4462 1.325 27.5 20.6415 0 
77.5 22.4462 1.325 77.5 20.6415 0 47.5 20.6415 0 
47.5 22.4462 1.325 67.5 22.4462 1.325 67.5 20.6415 0 
32.5 22.4462 -1.325 32.5 20.6415 0 102.5 20.6415 0 
102.5 22.4462 -1.325 92.5 11.5949 -1.325 92.5 13.3996 0 
102.5 11.5949 -1.325 102.5 13.3996 0 67.5 11.5949 1.325 
67.5 13.3996 0 77.5 11.5949 1.325 77.5 13.3996 0 
82.5 13.3996 0 82.5 11.5949 -1.325 72.5 13.3996 0 
72.5 11.5949 -1.325 62.5 13.3996 0 62.5 11.5949 -1.325 
97.5 11.5949 1.325 97.5 13.3996 0 87.5 11.5949 1.325 
87.5 13.3996 0 152.545 20.0053 0 42.5 11.5949 -1.325 
42.5 13.3996 0 57.5 11.5949 1.325 57.5 13.3996 0 
17.5 13.3996 0 17.5 11.5949 1.325 47.5 11.5949 1.325 
47.5 13.3996 0 32.5 11.5949 -1.325 32.5 13.3996 0 
27.5 11.5949 1.325 27.5 13.3996 0 107.5 11.5949 1.325 
107.5 13.3996 0 122.5 13.3996 0 122.5 11.5949 -1.325 
22.5 22.4694 -1.325 22.5 20.6647 0 112.5 22.4694 -1.325 
112.5 20.6647 0 52.5 22.4694 -1.325 52.5 20.6647 0 
37.5 22.4694 1.325 37.5 20.6647 0 117.5 22.4694 1.325 
117.5 20.6647 0 12.5 22.4462 -1.325 12.5 20.6415 0 
-27.9494 -2.106 -1.92268 -28.7793 -1.54503 0.00232283 -29.1153 0.195668 -1.925 
-27.5523 -0.957815 0.000890907 -27.9494 -2.106 1.92732 -29.1153 0.195668 1.925 
-18.4517 3.06307 1.325 144.555 22.1292 0 143.305 19.5665 0 
145.805 20.3245 0 140.797 13.4569 0 141.232 15.5363 0 
138.732 14.755 0 138.297 12.6757 0 1.44563 17.2676 0 
3.16182 18.6854 0 1.11615 20.008 0 -33.0351 31.1572 1.925 
-18.1427 29.4676 -3.25 -19.6954 29.9549 -1.325 -18.1427 29.4676 3.25 
-19.6954 29.9549 1.325 -7.20274 23.3406 1.325 3.08419 16.1593 0 
-39.7359 23.4539 1.69505 12.5 11.5949 -1.325 146.25 10.8368 0 
-29.5453 -1.814 -1.925 -0.556606 16.111 0 -2.84504 12.8466 0 
-2.41338 11.0328 -1.325 138.732 16.9503 0 1.08195 15.0027 0 
-29.5453 -1.814 1.925 3.03387 20.7571 0 5.43137 19.207 0 
5.55932 17.1353 0 7.1919 10.8801 -1.325 7.70966 20.8033 0 
7.85019 22.5677 1.325 127.447 22.5918 1.325 127.447 20.7871 0 
145.529 15.4302 0 145.529 13.2349 0 141.232 18.3876 0 
143.305 16.7152 0 -27.793 32.485 -2.3911 127.437 13.3299 0 
127.437 11.5253 1.325 5.49818 21.3356 0 -1.05833 13.9445 0 
132.228 18.4417 0 134.728 17.0276 0 132.228 15.5904 0 
-48.3605 21.309 1.88029 -50.5358 21.8386 1.925 7.28196 13.3483 0 
-16.5053 10.5051 3.25 -16.5053 10.5051 -3.25 136.617 15.8299 0 
173.435 23.6387 1.325 173.435 23.6387 -1.325 -23.6675 31.996 2.54374 
-4.38628 14.8113 0 129.947 20.0058 0 -32.1177 2.26697 -1.925 
-20.6363 31.2367 -2.59494 -21.0701 29.3534 -1.925 100 17.0321 0 
97.5 15.5949 0 100 14.1576 0 102.5 15.5949 0 
95 17.0321 0 95 14.1576 0 92.5 15.5949 0 
80 17.0321 0 77.5 15.5949 0 80 14.1576 0 
82.5 15.5949 0 75 17.0321 0 72.5 15.5949 0 
75 14.1576 0 90 17.0321 0 87.5 15.5949 0 
90 14.1576 0 85 17.0321 0 85 14.1576 0 
70 17.0321 0 67.5 15.5949 0 70 14.1576 0 
65 17.0321 0 65 14.1576 0 62.5 15.5949 0 
42.5 15.5949 0 45 17.0321 0 47.5 15.5949 0 
45 14.1576 0 57.5 15.5949 0 60 17.0321 0 
60 14.1576 0 30 17.0321 0 32.5 15.5949 0 
30 14.1576 0 27.5 15.5949 0 107.5 15.5949 0 
105 17.0321 0 105 14.1576 0 115 19.9067 0 
112.5 18.4694 0 115 17.0321 0 117.5 18.4694 0 
40 17.0321 0 40 14.1808 0 37.5 15.6181 0 
52.5 15.6181 0 55 17.0321 0 55 14.1808 0 
40 19.8835 0 37.5 18.4694 0 42.5 18.4462 0 
52.5 18.4694 0 57.5 18.4462 0 55 19.8835 0 
22.5 18.4694 0 20 17.0321 0 17.5 18.4462 0 
20 19.8835 0 22.5 15.6181 0 20 14.1808 0 
17.5 15.5949 0 50 17.0321 0 50 14.1808 0 
25 17.0321 0 27.5 18.4462 0 25 19.8835 0 
25 14.1808 0 47.5 18.4462 0 50 19.8835 0 
35 19.8835 0 35 17.0321 0 32.5 18.4462 0 
110 17.0321 0 110 14.1808 0 112.5 15.6181 0 
35 14.1808 0 110 19.8835 0 107.5 18.4462 0 
97.5 18.4462 0 102.5 18.4462 0 100 19.8603 0 
67.5 18.4462 0 72.5 18.4462 0 70 19.8603 0 
75 19.8603 0 77.5 18.4462 0 85 19.8603 0 
82.5 18.4462 0 87.5 18.4462 0 90 19.8603 0 
92.5 18.4462 0 62.5 18.4462 0 65 19.8603 0 
80 19.8603 0 95 19.8603 0 45 19.8603 0 
30 19.8603 0 60 19.8603 0 105 19.8603 0 
117.5 15.6181 0 115 14.204 0 129.937 14.088 0 
120 17.0321 0 120 14.1808 0 122.5 15.5949 0 
122.5 18.4462 0 120 19.8835 0 5.63871 23.1 1.325 
4.25855 23.1 0 -30.6856 3.64091 1.925 -30.6856 3.64091 -1.925 
136.689 18.1292 0 -26.2489 32.5573 -1.925 15 19.8603 0 
7.64285 18.6747 0 5.19825 14.8762 0 5.14792 12.825 0 
3.03385 14.1081 0 162.35 11.4801 -1.325 12.5988 18.4423 0 
15.0988 17.0283 0 145.805 18.1292 0 143.029 14.0162 0 
143.75 22.4694 0 141.25 22.4694 -1.325 -34.0225 33.0176 2.37822 
-45.2824 -0.976715 -1.925 127.447 18.5918 0 129.728 17.0276 0 
-30.9565 2.67658 -1.925 127.437 15.5253 0 125 17.0321 0 
124.947 20.0058 0 12.5988 15.591 0 15 14.1576 0 
-28.7562 32.6025 2.62519 -10.6892 25.3343 1.325 124.937 14.088 0 
141.25 20.6143 0 138.75 19.177 0 140 23.177 1.325 
10.22 19.9817 0 10.0216 17.1353 0 144.279 11.4302 0 
141.25 11.6181 -1.325 141.779 11.4302 1.325 7.64303 15.6074 0 
-8.8353 9.44236 1.325 -8.83183 9.44304 -1.325 -7.32661 10.4728 1.325 
-11.0448 8.73377 -1.325 1.25 10.319 -1.325 1.13426 13.1585 0 
-0.115737 11.8716 1.325 1.83617 10.9771 1.325 3.08617 12.2639 0 
-10.5547 25.3514 -1.325 138.75 21.3723 0 -20.0832 3.81783 -3.25 
-39.7359 23.4539 -2.15495 1.27532 22.6893 -1.325 -1.24654 23.055 -1.325 
-0.159166 22.3509 1.325 1.75855 23.1 1.325 -45.1728 0.0114535 -1.69505 
-45.8585 -1.12036 0.229951 -0.942596 11.1051 -1.325 -19.3747 30.4306 3.25 
-19.3747 30.4306 -3.25 -20.0832 3.81783 3.25 -30.9565 2.67658 1.925 
-8.26791 24.5892 -1.325 138.75 10.8368 -1.325 139.547 10.871 1.325 
-24.9437 32.3915 2.56103 -1.79363 23.4804 1.325 -41.3375 28.8865 -1.925 
-41.3375 28.8865 1.925 -8.40232 24.5721 1.325 -1.90244 10.7737 1.325 
138.75 23.2274 -1.325 4.33617 10.9771 0 3.75 10.319 0 
-50.1688 20.8582 -2.15495 -51.1119 21.6949 -0.229951 -45.1728 0.0114535 2.15495 
-51.9956 20.661 -2.15495 -46.8336 -0.670983 -1.69505 -46.8336 -0.670983 2.15495 
5.71632 10.9771 1.325 -47.5271 -0.297641 0.229951 -52.4431 20.0782 -0.229951 
-51.867 20.2219 1.925 -29.4395 31.1638 1.925 
CELLS 1760 17590
OFFSETS vtktypeint64
0 10 20 30 40 50 60 70 80 
90 100 110 120 130 140 150 160 170 
180 190 200 210 220 230 240 250 260 
270 280 290 300 310 320 330 340 350 
360 370 380 390 400 410 420 430 440 
450 460 470 480 490 500 510 520 530 
540 550 560 570 580 590 600 610 620 
630 640 650 660 670 680 690 700 710 
720 730 740 750 760 770 780 790 800 
810 820 830 840 850 860 870 880 890 
900 910 920 930 940 950 960 970 980 
990 1000 1010 1020 1030 1040 1050 1060 1070 
1080 1090 1100 1110 1120 1130 1140 1150 1160 
1170 1180 1190 1200 1210 1220 1230 1240 1250 
1260 1270 1280 1290 1300 1310 1320 1330 1340 
1350 1360 1370 1380 1390 1400 1410 1420 1430 
1440 1450 1460 1470 1480 1490 1500 1510 1520 
1530 1540 1550 1560 1570 1580 1590 1600 1610 
1620 1630 1640 1650 1660 1670 1680 1690 1700 
1710 1720 1730 1740 1750 1760 1770 1780 1790 
1800 1810 1820 1830 1840 1850 1860 1870 1880 
1890 1900 1910 1920 1930 1940 1950 1960 1970 
1980 1990 2000 2010 2020 2030 2040 2050 2060 
2070 2080 2090 2100 2110 2120 2130 2140 2150 
2160 2170 2180 2190 2200 2210 2220 2230 2240 
2250 2260 2270 2280 2290 2300 2310 2320 2330 
2340 2350 2360 2370 2380 2390 2400 2410 2420 
2430 2440 2450 2460 2470 2480 2490 2500 2510 
2520 2530 2540 2550 2560 2570 2580 2590 2600 
2610 2620 2630 2640 2650 2660 2670 2680 2690 
2700 2710 2720 2730 2740 2750 2760 2770 2780 
2790 2800 2810 2820 2830 2840 2850 2860 2870 
2880 2890 2900 2910 2920 2930 2940 2950 2960 
2970 2980 2990 3000 3010 3020 3030 3040 3050 
3060 3070 3080 3090 3100 3110 3120 3130 3140 
3150 3160 3170 3180 3190 3200 3210 3220 3230 
3240 3250 3260 3270 3280 3290 3300 3310 3320 
3330 3340 3350 3360 3370 3380 3390 3400 3410 
3420 3430 3440 3450 3460 3470 3480 3490 3500 
3510 3520 3530 3540 3550 3560 3570 3580 3590 
3600 3610 3620 3630 3640 3650 3660 3670 3680 
3690 3700 3710 3720 3730 3740 3750 3760 3770 
3780 3790 3800 3810 3820 3830 3840 3850 3860 
3870 3880 3890 3900 3910 3920 3930 3940 3950 
3960 3970 3980 3990 4000 4010 4020 4030 4040 
4050 4060 4070 4080 4090 4100 4110 4120 4130 
4140 4150 4160 4170 4180 4190 4200 4210 4220 
4230 4240 4250 4260 4270 4280 4290 4300 4310 
4320 4330 4340 4350 4360 4370 4380 4390 4400 
4410 4420 4430 4440 4450 4460 4470 4480 4490 
4500 4510 4520 4530 4540 4550 4560 4570 4580 
4590 4600 4610 4620 4630 4640 4650 4660 4670 
4680 4690 4700 4710 4720 4730 4740 4750 4760 
4770 4780 4790 4800 4810 4820 4830 4840 4850 
4860 4870 4880 4890 4900 4910 4920 4930 4940 
4950 4960 4970 4980 4990 5000 5010 5020 5030 
5040 5050 5060 5070 5080 5090 5100 5110 5120 
5130 5140 5150 5160 5170 5180 5190 5200 5210 
5220 5230 5240 5250 5260 5270 5280 5290 5300 
5310 5320 5330 5340 5350 5360 5370 5380 5390 
5400 5410 5420 5430 5440 5450 5460 5470 5480 
5490 5500 5510 5520 5530 5540 5550 5560 5570 
5580 5590 5600 5610 5620 5630 5640 5650 5660 
5670 5680 5690 5700 5710 5720 5730 5740 5750 
5760 5770 5780 5790 5800 5810 5820 5830 5840 
5850 5860 5870 5880 5890 5900 5910 5920 5930 
5940 5950 5960 5970 5980 5990 6000 6010 6020 
6030 6040 6050 6060 6070 6080 6090 6100 6110 
6120 6130 6140 6150 6160 6170 6180 6190 6200 
6210 6220 6230 6240 6250 6260 6270 6280 6290 
6300 6310 6320 6330 6340 6350 6360 6370 6380 
6390 6400 6410 6420 6430 6440 6450 6460 6470 
6480 6490 6500 6510 6520 6530 6540 6550 6560 
6570 6580 6590 6600 6610 6620 6630 6640 6650 
6660 6670 6680 6690 6700 6710 6720 6730 6740 
6750 6760 6770 6780 6790 6800 6810 6820 6830 
6840 6850 6860 6870 6880 6890 6900 6910 6920 
6930 6940 6950 6960 6970 6980 6990 7000 7010 
7020 7030 7040 7050 7060 7070 7080 7090 7100 
7110 7120 7130 7140 7150 7160 7170 7180 7190 
7200 7210 7220 7230 7240 7250 7260 7270 7280 
7290 7300 7310 7320 7330 7340 7350 7360 7370 
7380 7390 7400 7410 7420 7430 7440 7450 7460 
7470 7480 7490 7500 7510 7520 7530 7540 7550 
7560 7570 7580 7590 7600 7610 7620 7630 7640 
7650 7660 7670 7680 7690 7700 7710 7720 7730 
7740 7750 7760 7770 7780 7790 7800 7810 7820 
7830 7840 7850 7860 7870 7880 7890 7900 7910 
7920 7930 7940 7950 7960 7970 7980 7990 8000 
8010 8020 8030 8040 8050 8060 8070 8080 8090 
8100 8110 8120 8130 8140 8150 8160 8170 8180 
8190 8200 8210 8220 8230 8240 8250 8260 8270 
8280 8290 8300 8310 8320 8330 8340 8350 8360 
8370 8380 8390 8400 8410 8420 8430 8440 8450 
8460 8470 8480 8490 8500 8510 8520 8530 8540 
8550 8560 8570 8580 8590 8600 8610 8620 8630 
8640 8650 8660 8670 8680 8690 8700 8710 8720 
8730 8740 8750 8760 8770 8780 8790 8800 8810 
8820 8830 8840 8850 8860 8870 8880 8890 8900 
8910 8920 8930 8940 8950 8960 8970 8980 8990 
9000 9010 9020 9030 9040 9050 9060 9070 9080 
9090 9100 9110 9120 9130 9140 9150 9160 9170 
9180 9190 9200 9210 9220 9230 9240 9250 9260 
9270 9280 9290 9300 9310 9320 9330 9340 9350 
9360 9370 9380 9390 9400 9410 9420 9430 9440 
9450 9460 9470 9480 9490 9500 9510 9520 9530 
9540 9550 9560 9570 9580 9590 9600 9610 9620 
9630 9640 9650 9660 9670 9680 9690 9700 9710 
9720 9730 9740 9750 9760 9770 9780 9790 9800 
9810 9820 9830 9840 9850 9860 9870 9880 9890 
9900 9910 9920 9930 9940 9950 9960 9970 9980 
9990 10000 10010 10020 10030 10040 10050 10060 10070 
10080 10090 10100 10110 10120 10130 10140 10150 10160 
10170 10180 10190 10200 10210 10220 10230 10240 10250 
10260 10270 10280 10290 10300 10310 10320 10330 10340 
10350 10360 10370 10380 10390 10400 10410 10420 10430 
10440 10450 10460 10470 10480 10490 10500 10510 10520 
10530 10540 10550 10560 10570 10580 10590 10600 10610 
10620 10630 10640 10650 10660 10670 10680 10690 10700 
10710 10720 10730 10740 10750 10760 10770 10780 10790 
10800 10810 10820 10830 10840 10850 10860 10870 10880 
10890 10900 10910 10920 10930 10940 10950 10960 10970 
10980 10990 11000 11010 11020 11030 11040 11050 11060 
11070 11080 11090 11100 11110 11120 11130 11140 11150 
11160 11170 11180 11190 11200 11210 11220 11230 11240 
11250 11260 11270 11280 11290 11300 11310 11320 11330 
11340 11350 11360 11370 11380 11390 11400 11410 11420 
11430 11440 11450 11460 11470 11480 11490 11500 11510 
11520 11530 11540 11550 11560 11570 11580 11590 11600 
11610 11620 11630 11640 11650 11660 11670 11680 11690 
11700 11710 11720 11730 11740 11750 11760 11770 11780 
11790 11800 11810 11820 11830 11840 11850 11860 11870 
11880 11890 11900 11910 11920 11930 11940 11950 11960 
11970 11980 11990 12000 12010 12020 12030 12040 12050 
12060 12070 12080 12090 12100 12110 12120 12130 12140 
12150 12160 12170 12180 12190 12200 12210 12220 12230 
12240 12250 12260 12270 12280 12290 12300 12310 12320 
12330 12340 12350 12360 12370 12380 12390 12400 12410 
12420 12430 12440 12450 12460 12470 12480 12490 12500 
12510 12520 12530 12540 12550 12560 12570 12580 12590 
12600 12610 12620 12630 12640 12650 12660 12670 12680 
12690 12700 12710 12720 12730 12740 12750 12760 12770 
12780 12790 12800 12810 12820 12830 12840 12850 12860 
12870 12880 12890 12900 12910 12920 12930 12940 12950 
12960 12970 12980 12990 13000 13010 13020 13030 13040 
13050 13060 13070 13080 13090 13100 13110 13120 13130 
13140 13150 13160 13170 13180 13190 13200 13210 13220 
13230 13240 13250 13260 13270 13280 13290 13300 13310 
13320 13330 13340 13350 13360 13370 13380 13390 13400 
13410 13420 13430 13440 13450 13460 13470 13480 13490 
13500 13510 13520 13530 13540 13550 13560 13570 13580 
13590 13600 13610 13620 13630 13640 13650 13660 13670 
13680 13690 13700 13710 13720 13730 13740 13750 13760 
13770 13780 13790 13800 13810 13820 13830 13840 13850 
13860 13870 13880 13890 13900 13910 13920 13930 13940 
13950 13960 13970 13980 13990 14000 14010 14020 14030 
14040 14050 14060 14070 14080 14090 14100 14110 14120 
14130 14140 14150 14160 14170 14180 14190 14200 14210 
14220 14230 14240 14250 14260 14270 14280 14290 14300 
14310 14320 14330 14340 14350 14360 14370 14380 14390 
14400 14410 14420 14430 14440 14450 14460 14470 14480 
14490 14500 14510 14520 14530 14540 14550 14560 14570 
14580 14590 14600 14610 14620 14630 14640 14650 14660 
14670 14680 14690 14700 14710 14720 14730 14740 14750 
14760 14770 14780 14790 14800 14810 14820 14830 14840 
14850 14860 14870 14880 14890 14900 14910 14920 14930 
14940 14950 14960 14970 14980 14990 15000 15010 15020 
15030 15040 15050 15060 15070 15080 15090 15100 15110 
15120 15130 15140 15150 15160 15170 15180 15190 15200 
15210 15220 15230 15240 15250 15260 15270 15280 15290 
15300 15310 15320 15330 15340 15350 15360 15370 15380 
15390 15400 15410 15420 15430 15440 15450 15460 15470 
15480 15490 15500 15510 15520 15530 15540 15550 15560 
15570 15580 15590 15600 15610 15620 15630 15640 15650 
15660 15670 15680 15690 15700 15710 15720 15730 15740 
15750 15760 15770 15780 15790 15800 15810 15820 15830 
15840 15850 15860 15870 15880 15890 15900 15910 15920 
15930 15940 15950 15960 15970 15980 15990 16000 16010 
16020 16030 16040 16050 16060 16070 16080 16090 16100 
16110 16120 16130 16140 16150 16160 16170 16180 16190 
16200 16210 16220 16230 16240 16250 16260 16270 16280 
16290 16300 16310 16320 16330 16340 16350 16360 16370 
16380 16390 16400 16410 16420 16430 16440 16450 16460 
16470 16480 16490 16500 16510 16520 16530 16540 16550 
16560 16570 16580 16590 16600 16610 16620 16630 16640 
16650 16660 16670 16680 16690 16700 16710 16720 16730 
16740 16750 16760 16770 16780 16790 16800 16810 16820 
16830 16840 16850 16860 16870 16880 16890 16900 16910 
16920 16930 16940 16950 16960 16970 16980 16990 17000 
17010 17020 17030 17040 17050 17060 17070 17080 17090 
17100 17110 17120 17130 17140 17150 17160 17170 17180 
17190 17200 17210 17220 17230 17240 17250 17260 17270 
17280 17290 17300 17310 17320 17330 17340 17350 17360 
17370 17380 17390 17400 17410 17420 17430 17440 17450 
17460 17470 17480 17490 17500 17510 17520 17530 17540 
17550 17560 17570 17580 17590 
CONNECTIVITY vtktypeint64
2424 664 692 2702 2711 752 2710 2712 2713 
2714 896 868 2424 2702 984 2716 2715 2717 
2718 2712 889 685 868 2702 2720 2719 1023 
2721 2722 2718 889 685 855 868 2720 2723 
1018 1023 2719 1022 872 652 687 891 2725 
827 2724 1005 2726 2727 1061 872 687 891 
2729 2724 2728 2730 1005 2727 872 668 2703 
2704 2733 2732 2731 2734 2735 2736 864 685 
855 889 2737 2723 1017 1019 2720 1018 687 
652 660 891 827 825 826 2727 2726 2738 
651 662 855 2705 816 2740 2739 2741 2742 
2743 652 685 889 2702 824 2720 2744 2745 
2722 2721 874 670 1064 2706 2748 2747 2746 
2749 2750 2751 685 855 660 864 2723 2752 
814 2737 1017 2753 652 687 668 872 827 
806 829 2725 2724 2733 874 670 2706 2708 
2748 2750 2749 2754 2755 2756 883 1059 872 
2704 2758 2757 1003 2759 2760 2734 679 668 
1059 2704 805 2762 2761 2763 2735 2760 855 
684 660 864 2764 813 2752 1017 2765 2753 
1061 668 687 872 2766 806 2728 2729 2733 
2724 864 660 652 891 2753 825 2767 1031 
2738 2726 685 656 664 2702 823 851 819 
2722 2768 2713 860 889 868 2702 1028 1023 
1055 2769 2721 2718 660 1061 687 891 2770 
2728 826 2738 2730 2727 685 664 868 2702 
819 2771 2719 2722 2713 2718 881 677 664 
855 2773 751 2772 1011 2774 2775 1059 668 
872 2704 2762 2733 2757 2760 2735 2734 855 
685 664 868 2723 819 2775 1022 2719 2771 
864 652 685 889 2767 824 2737 1019 2744 
2720 864 1061 660 891 2776 2770 2753 1031 
2730 2738 651 685 664 855 815 819 818 
2739 2723 2775 652 872 856 891 2725 1033 
2777 2726 1005 1030 651 662 684 855 816 
800 812 2739 2740 2764 231 868 248 247 
2780 2779 2778 2781 2782 251 652 685 660 
864 824 814 825 2767 2737 2753 654 668 
679 2704 843 805 841 2783 2735 2763 883 
872 858 2704 1003 1046 1045 2759 2734 2784 
685 651 660 855 815 811 814 2723 2739 
2752 230 677 664 247 2786 751 2785 2787 
2788 2789 684 855 888 864 2764 1016 2790 
2765 1017 1015 684 660 651 855 813 811 
812 2764 2752 2739 231 230 664 247 234 
2785 2791 2781 2787 2789 855 664 881 868 
2775 2772 1011 1022 2771 983 664 677 651 
855 751 808 818 2775 2774 2739 864 652 
856 891 2767 2777 1029 1031 2726 1030 568 
587 39 884 2793 2792 577 2794 2795 2796 
587 39 680 568 2792 2798 2797 2793 577 
2799 668 652 872 2703 829 2725 2733 2732 
2800 2731 663 2703 668 2704 2801 2732 830 
2802 2736 2735 872 2703 867 2704 2731 2803 
1032 2734 2736 2804 856 652 889 2702 2777 
2744 1027 2805 2745 2721 894 690 855 2705 
2807 2806 1013 2808 2809 2743 1062 888 684 
2705 2811 2790 2810 2812 2813 2814 248 231 
2424 868 2778 2816 2815 2779 2780 2716 894 
690 2705 2708 2807 2809 2808 2817 2818 2819 
188 659 679 2704 2821 730 2820 2822 2823 
2763 188 883 863 2704 2825 933 2824 2822 
2759 2826 690 862 894 855 2827 1014 2807 
2806 1012 1013 1155 1154 1148 2703 1203 1202 
1196 2828 2829 2830 670 874 2705 2708 2748 
2832 2831 2755 2754 2819 686 1060 1064 2706 
2834 1077 2833 2835 2836 2751 890 1064 1060 
2706 2838 1077 2837 2839 2751 2836 677 881 
862 855 2773 980 2840 2774 1011 1012 881 
664 677 247 2772 751 2773 2841 2789 2788 
193 221 2706 2708 2844 2843 2842 2845 2846 
2756 874 1063 670 2705 2848 2847 2748 2832 
2849 2831 652 864 856 889 2767 1029 2777 
2744 1019 1027 664 2424 868 2702 2711 2716 
2771 2713 2712 2718 856 872 652 2703 1033 
2725 2777 2850 2731 2800 70 614 657 616 
627 2852 2851 633 632 2853 657 70 861 
2706 2851 2855 2854 2856 2857 2858 657 861 
70 616 2854 2855 2851 2853 2859 633 675 
70 657 2706 2860 2851 708 2861 2857 2856 
879 861 70 2706 912 2855 2862 2863 2858 
2857 658 651 677 855 807 808 748 2864 
2739 2774 868 664 881 247 2771 2772 983 
2782 2789 2841 670 686 1064 2706 795 2833 
2747 2750 2835 2751 890 874 1064 2706 994 
2746 2838 2839 2749 2751 1154 1148 2703 2704 
1202 2830 2829 2865 2866 2736 664 868 231 
247 2771 2780 2791 2789 2782 2781 2424 896 
248 868 2715 2867 2815 2716 984 2779 1064 
670 874 1063 2747 2748 2746 1080 2847 2848 
881 677 862 246 2773 2840 980 2868 2869 
2870 247 677 229 230 2788 2872 2871 2787 
2786 233 229 658 677 246 2873 748 2872 
2874 2875 2869 863 188 2704 2707 2824 2822 
2826 2876 2877 2878 659 2704 188 2707 2823 
2822 2821 2879 2878 2877 231 664 692 2424 
2791 752 2880 2816 2711 2710 618 70 861 
616 630 2855 2881 634 633 2859 870 39 
587 884 2883 2792 2882 902 2796 2795 690 
651 855 2705 810 2739 2806 2809 2741 2743 
2424 692 236 2702 2710 2884 2425 2712 2714 
2885 2424 236 896 2702 2425 2886 2715 2712 
2885 2717 680 666 39 587 698 2887 2798 
2797 2888 2792 690 651 658 855 810 807 
809 2806 2739 2864 677 862 658 855 2840 
2889 748 2774 1012 2864 1213 1240 871 2707 
2892 2891 2890 2893 2894 2895 70 675 657 
614 2860 708 2851 627 2896 2852 1213 667 
1240 2707 2898 2897 2892 2893 2899 2894 675 
70 7 614 2860 71 2900 2896 627 624 
664 2424 231 868 2711 2816 2791 2771 2716 
2780 684 888 1062 864 2790 2811 2810 2765 
1015 2901 247 677 881 246 2788 2773 2841 
250 2869 2868 229 677 247 246 2872 2788 
2871 2874 2869 250 862 690 894 2708 2827 
2807 1014 2902 2818 2817 686 657 1060 2706 
789 2903 2834 2835 2856 2836 890 1060 861 
2706 2837 2904 987 2839 2836 2858 2013 222 
193 1365 2071 2906 2905 2907 2908 1416 70 
861 879 618 2855 912 2862 630 2881 2909 
658 862 690 855 2889 2827 809 2864 1012 
2806 659 240 672 2704 2911 2910 723 2823 
2912 2913 863 876 240 2704 927 2915 2914 
2826 2916 2912 1213 1240 1212 878 2892 2917 
1229 2918 2919 2920 859 874 890 2706 1052 
994 1051 2921 2749 2839 670 655 686 2706 
849 847 795 2750 2922 2835 865 661 612 
2709 2925 2924 2923 2926 2927 2928 1240 1212 
674 1213 2917 2930 2929 2892 1229 2931 1061 
1059 668 872 1087 2762 2766 2729 2757 2733 
871 1240 1213 878 2891 2892 2890 973 2919 
2918 229 246 23 658 2874 249 2932 2873 
2875 2933 862 677 658 246 2840 748 2889 
2870 2869 2875 667 1240 674 1213 2897 2929 
770 2898 2892 2931 861 1060 657 2706 2904 
2903 2854 2858 2836 2856 661 613 865 612 
2935 2934 2925 2924 637 2923 879 8 70 
618 2936 72 2862 2909 629 630 665 2706 
670 2708 2937 2750 835 2938 2756 2755 874 
2706 869 2708 2749 2939 1039 2754 2756 2940 
665 193 2706 2708 2941 2842 2937 2938 2845 
2756 869 2706 221 2708 2939 2843 2942 2940 
2756 2846 884 568 587 588 2794 2793 2795 
2943 2944 606 568 680 587 588 2799 2797 
2793 2944 2945 606 1154 676 1149 2704 2947 
2946 1184 2865 2948 2949 856 652 2702 2703 
2777 2745 2805 2850 2800 2950 661 870 865 
613 2951 944 2925 2935 2952 2934 666 870 
661 613 2953 2951 757 2954 2952 2935 1154 
663 676 2704 2955 744 2947 2865 2802 2948 
1327 340 2023 1371 1546 2957 2956 1530 1401 
2958 858 872 867 2704 1046 1032 1047 2784 
2734 2804 663 668 654 2704 830 843 842 
2802 2735 2783 862 875 23 2708 917 2960 
2959 2902 2961 2962 229 658 23 20 2873 
2933 2932 232 2963 2964 658 246 23 862 
2875 249 2933 2889 2870 2959 657 861 616 
2709 2854 2859 2853 2965 2966 2967 194 23 
222 2708 2969 226 2968 2970 2962 2971 671 
658 20 2708 713 2963 2972 2973 2974 2975 
23 20 658 2708 2964 2963 2933 2962 2975 
2974 587 666 39 870 2888 2887 2792 2882 
2953 2883 1154 1149 1148 2704 1184 1200 1202 
2865 2949 2866 23 658 862 2708 2933 2889 
2959 2962 2974 2902 862 658 690 2708 2889 
809 2827 2902 2974 2818 1103 193 221 2706 
2977 2844 2976 2978 2842 2843 193 222 221 
2708 2906 225 2844 2845 2971 2846 193 194 
222 2708 197 2968 2906 2845 2970 2971 240 
1159 672 2704 1165 2979 2910 2912 2980 2913 
1154 2703 663 2704 2829 2801 2955 2865 2736 
2802 659 240 2704 2707 2911 2912 2823 2879 
2981 2878 863 2704 240 2707 2826 2912 2914 
2876 2878 2981 856 889 860 2702 1027 1028 
1026 2805 2721 2769 656 685 652 2702 823 
824 820 2768 2722 2745 692 664 656 2702 
752 851 852 2714 2713 2768 896 860 868 
2702 1056 1055 984 2717 2769 2718 193 222 
2013 221 2906 2071 2905 2844 225 2070 194 
1365 193 222 1417 1416 197 2968 2908 2906 
590 661 865 2709 2983 2925 2982 2984 2927 
2926 865 661 590 870 2925 2983 2982 944 
2951 2985 666 590 661 870 2986 2983 757 
2953 2985 2951 1211 1212 678 1241 1232 2988 
2987 2989 2990 2991 861 657 1060 2709 2854 
2903 2904 2966 2965 2992 887 179 1063 2705 
991 1091 2993 2994 2995 2849 129 683 1063 
2705 791 2996 1078 2997 2998 2849 1062 888 
1061 864 2811 2999 1086 2901 1015 2776 887 
866 179 2705 997 998 991 2994 3000 2995 
662 683 129 2705 799 791 798 2742 2998 
2997 1062 1063 179 2705 1083 1091 1093 2812 
2849 2995 129 1063 1062 2705 1078 1083 1081 
2997 2849 2812 231 248 2423 247 2778 3002 
3001 2781 251 3003 39 870 666 613 2883 
2953 2887 620 2952 2954 680 568 682 588 
2799 3004 735 2945 2944 3005 665 193 689 
2706 2941 3006 763 2937 2842 3007 869 893 
221 2706 956 3008 2942 2939 3009 2843 222 
23 875 2708 226 2960 3010 2971 2962 2961 
23 194 20 2708 2969 198 2964 2962 2970 
2975 1371 2023 1327 2645 2958 2956 1530 3011 
3012 3013 568 884 886 588 2794 939 3014 
2944 2943 3015 1365 1107 193 2013 3017 3016 
1416 2907 3018 2905 2423 230 231 247 3019 
234 3001 3003 2787 2781 194 671 20 2708 
3020 2972 198 2970 2973 2975 659 654 679 
2704 839 841 730 2823 2783 2763 883 858 
863 2704 1045 1044 933 2759 2784 2826 2642 
1972 2643 1326 3022 3021 2661 3023 3024 3025 
874 887 1063 2705 992 2993 2848 2832 2994 
2849 683 670 1063 2705 794 2847 2996 2998 
2831 2849 866 894 855 2705 1021 1013 1020 
3000 2808 2743 690 662 651 2705 817 816 
810 2809 2742 2741 192 689 193 2706 3026 
3006 196 3027 3007 2842 2021 2642 2644 1369 
3029 2658 3028 3030 3031 3032 1273 1972 1326 
1327 3033 3024 1640 1641 3034 1529 1326 1972 
2643 1327 3024 3021 3025 1529 3034 3035 1152 
1156 1158 2702 1176 1205 1204 3036 3037 3038 
655 670 665 2706 849 835 848 2922 2750 
2937 874 859 869 2706 1052 1053 1039 2749 
2921 2939 678 1212 674 1241 2988 2930 773 
2991 2990 3039 221 893 220 2706 3008 3040 
224 2843 3009 3041 2018 1365 222 2013 3042 
2908 2032 2067 2907 2071 23 1980 1330 1940 
2034 3044 3043 2037 2036 3045 1212 1240 1241 
878 2917 1259 2990 2920 2919 3046 1241 1212 
674 1240 2990 2930 3039 1259 2917 2929 192 
193 1103 2706 196 2977 3047 3027 2842 2978 
340 2023 1974 1327 2957 2251 3048 1546 2956 
3049 70 675 1104 2706 2860 3050 1108 2857 
2861 3051 879 70 1104 2706 2862 1108 3052 
2863 2857 3051 684 687 660 1061 803 826 
813 3053 2728 2770 1061 864 888 891 2776 
1015 2999 2730 1031 1002 2609 1981 2610 1331 
3055 3054 2631 3056 3057 3058 657 686 655 
2706 789 847 845 2856 2835 2922 859 890 
861 2706 1051 987 1050 2921 2839 2858 1974 
1972 1922 1327 2250 2301 2300 3049 3034 3059 
570 682 568 588 3060 3004 584 3061 3005 
2944 1333 2470 2010 1306 3064 3063 3062 1507 
3065 3066 2642 2021 1972 1369 3029 2247 3022 
3031 3030 3067 222 23 194 2018 226 2969 
2968 2032 2033 3068 2643 1972 1974 1327 3021 
2250 3069 3035 3034 3049 221 220 1103 2706 
224 3070 2976 2843 3041 2978 570 568 886 
588 584 3014 3071 3061 2944 3015 76 615 
673 616 643 3072 778 641 642 3073 615 
83 877 616 649 947 3074 642 650 3075 
1273 1922 1972 1327 3076 2301 3033 1641 3059 
3034 1150 240 876 2704 1171 2915 3077 3078 
2912 2916 2611 2009 2607 1344 3080 3079 2622 
3081 3082 3083 1152 669 1156 2702 3085 3084 
1176 3036 3086 3037 657 691 1060 2709 790 
3087 2903 2965 3088 2992 861 1060 895 2709 
2904 3089 989 2966 2992 3090 872 856 867 
2703 1033 1034 1032 2731 2850 2803 663 652 
668 2703 828 829 830 2801 2800 2732 2008 
1364 2671 1327 3093 3092 3091 3094 1547 3095 
653 670 2705 2708 836 2831 3096 3097 2755 
2819 857 2705 874 2708 3098 2832 1038 3099 
2819 2754 1972 2021 1981 1369 2247 2269 2302 
3067 3030 3100 1156 1158 2702 2703 1205 3038 
3037 3101 3102 2950 1980 229 1969 246 3104 
3103 2074 2035 2874 2075 1974 548 2023 340 
2286 2060 2251 3048 2692 2957 885 1151 1158 
2702 3106 1188 3105 3107 3108 3038 494 2470 
2010 1333 2556 3063 2240 3109 3064 3062 873 
856 2702 2703 1025 2805 3110 3111 2850 2950 
652 669 2702 2703 821 3086 2745 2800 3112 
2950 2421 1325 2422 2017 3114 3113 2441 3115 
3116 3117 2669 2007 1351 2670 3120 3119 3118 
2688 3121 3122 2608 1992 2609 1345 3124 3123 
2628 3125 3126 3127 666 587 590 870 2888 
607 2986 2953 2882 2985 2668 2011 2667 1350 
3129 3128 2682 3130 3131 3132 1762 1763 349 
1993 1797 1792 1796 3133 3134 3135 2671 1974 
2008 1327 3136 2285 3091 3095 3049 3094 2018 
23 1366 1940 2033 3138 3137 2038 2037 3139 
1784 1979 2012 1309 3141 2158 3140 3142 3143 
3144 2610 1981 2021 1369 3054 2269 3145 3146 
3100 3030 1351 2668 2007 2669 3148 3147 3119 
3118 2685 3120 1334 2449 2447 1995 3150 2482 
3149 3151 3152 3153 2608 2607 1992 1345 2625 
3154 3124 3125 3155 3126 1366 194 23 2018 
1374 2969 3138 3137 3068 2033 1364 2008 1273 
1327 3093 3156 1638 1547 3094 1641 1302 2607 
2009 1344 3158 3079 3157 1513 3083 3082 1330 
20 23 1940 1376 2964 3043 3045 3159 2037 
2470 2469 2010 1343 2554 3160 3063 3161 3162 
3163 2468 1991 2469 1343 3165 3164 2551 3166 
3167 3162 2013 1107 193 221 3018 3016 2905 
2070 3168 2844 1921 1272 1980 1940 3170 3169 
2287 2288 3171 2036 1771 1999 1770 1356 3173 
3172 1830 3174 3175 3176 1773 2000 1772 1357 
3178 3177 1836 3179 3180 3181 1777 1778 2003 
1359 1851 3183 3182 3184 3185 3186 1776 2002 
1775 1358 3188 3187 1845 3189 3190 3191 1774 
2001 1773 1357 3193 3192 1839 3194 3195 3179 
1774 1775 2001 1358 1842 3196 3193 3197 3191 
3198 1772 2000 1771 1356 3177 3199 1833 3200 
3201 3174 2002 1776 1777 1359 3188 1848 3202 
3203 3204 3184 1761 1762 1347 1993 1800 3206 
3205 3207 3133 3208 1769 1768 1355 1998 1824 
3210 3209 3211 3212 3213 1766 1765 1354 1997 
1815 3215 3214 3216 3217 3218 1999 1355 1769 
1770 3220 3209 3219 3172 3221 1827 1778 1779 
2003 1360 1854 3222 3183 3223 3224 3225 1760 
1761 1347 1994 1803 3205 3226 3227 3228 3229 
1764 1760 1353 1994 1806 3231 3230 3232 3227 
3233 1785 1354 1765 1996 3234 3215 1812 3235 
3236 3237 1767 1346 1768 1998 3239 3238 1821 
3240 3241 3212 1783 1362 2005 1782 3244 3243 
3242 1866 3245 3246 1967 1323 1273 1922 3248 
1637 3247 2297 3249 3076 229 23 1980 1330 
2932 2034 3104 1375 3043 3044 1782 2005 1781 
1361 3246 3250 1863 3251 3252 3253 1764 1353 
1785 1996 3230 3254 1809 3255 3256 3235 2004 
1779 1780 1360 3258 1857 3257 3259 3224 3260 
2450 1332 2447 1995 3262 3261 2485 3263 3264 
3153 2448 1332 2450 1982 3265 3262 2488 3266 
3267 3268 1990 2466 2465 1342 3270 2542 3269 
3271 3272 3273 1346 1767 1766 1997 3239 1818 
3274 3275 3276 3216 2458 1986 2459 1339 3278 
3277 2521 3279 3280 3281 1335 2451 2452 1983 
3283 2494 3282 3284 3285 3286 2460 1987 2461 
1340 3288 3287 2527 3289 3290 3291 2459 1987 
2460 1339 3292 3288 2524 3281 3293 3294 1337 
2455 2456 1985 3296 2509 3295 3297 3298 3299 
2454 1348 2471 1984 3301 3300 2503 3302 3303 
3304 1336 2453 2471 1984 3306 2500 3305 3307 
3308 3304 1988 2462 2461 1340 3310 2530 3309 
3311 3312 3291 2446 2006 2457 1338 3314 3313 
2515 3315 3316 3317 1337 2006 2456 2446 3319 
3318 3295 3320 3314 2512 1986 2458 2457 1338 
3278 2518 3321 3322 3323 3317 1988 2463 2462 
1341 3324 2533 3310 3325 3326 3327 2451 1335 
2448 1982 3283 3328 2491 3329 3330 3266 1989 
2465 2464 1342 3332 2539 3331 3333 3273 3334 
1348 2454 2455 1985 3301 2506 3335 3336 3337 
3298 1989 2464 2463 1341 3331 2536 3338 3339 
3340 3326 2452 2453 1336 1983 2497 3306 3341 
3286 3342 3343 2004 1780 1781 1361 3257 1860 
3344 3345 3346 3253 2466 1990 2467 1349 3270 
3347 2545 3348 3349 3350 2468 2467 1991 1349 
2548 3351 3165 3352 3350 3353 247 230 229 
2019 2787 233 2871 2073 3354 3355 1981 2610 
527 2609 3054 2641 2266 3055 2631 2639 2610 
319 2609 1331 2629 2627 2631 3058 1521 3056 
1309 1784 1979 1363 3142 3141 3143 1626 3356 
3357 1979 1784 432 1363 3141 1870 2159 3357 
3356 3358 1922 2008 1974 1327 2298 2285 2300 
3059 3094 3049 1972 1326 2642 1369 3024 3023 
3022 3067 1526 3031 675 7 70 1104 2900 
71 2860 3050 1109 1108 8 879 70 1104 
2936 2862 72 1111 3052 1108 1784 1362 2012 
1783 3360 3359 3140 1869 3244 3361 2012 1784 
432 1979 3140 1870 2155 2158 3141 2159 1159 
1149 676 2704 1185 2946 3362 2980 2949 2948 
1282 1323 1967 1929 1708 3248 3363 3364 3365 
2352 1311 2011 2668 1350 3367 3129 3366 1536 
3131 3130 1282 1323 1992 1345 1708 3369 3368 
1705 1519 3126 340 1974 2671 1327 3048 3136 
2689 1546 3049 3095 1365 2018 1107 2013 3042 
3370 3017 2907 2067 3018 2007 2669 546 2670 
3120 2698 2276 3121 2688 2699 2668 2007 1955 
1351 3147 2278 3371 3148 3119 3372 1273 2008 
1922 1327 3156 2298 3076 1641 3094 3059 1366 
23 20 1940 3138 2964 1373 3139 2037 3159 
20 1330 1291 1940 1376 1378 1377 3159 3045 
3373 1240 667 1242 2707 2897 3374 1260 2894 
2899 3375 1980 23 229 246 2034 2932 3104 
2035 249 2874 1972 1273 1326 1331 3033 1640 
3024 3376 1639 1642 1302 2009 1281 1344 3157 
3377 1699 1513 3082 1702 2610 2021 528 1369 
3145 2057 2633 3146 3030 3378 1156 2702 669 
2703 3037 3086 3084 3101 2950 3112 349 1763 
1307 1993 1792 3379 1551 3135 3134 3380 613 
661 74 612 2935 775 621 637 2924 636 
1328 1272 1325 2017 1631 1630 1428 3381 3382 
3116 2609 526 1992 2608 2640 2261 3123 2628 
2637 3124 1153 1154 1155 2703 1180 1203 1206 
3383 2829 2828 1106 2014 1291 1105 3386 3385 
3384 1120 3387 3388 1992 2607 1945 1345 3154 
3389 2262 3126 3155 3390 222 194 1365 2018 
2968 1417 2908 2032 3068 3042 1945 1282 1992 
1345 3391 3368 2262 3390 1705 3126 613 81 
865 612 623 946 2934 637 646 2923 1972 
1331 1326 1369 3376 1642 3024 3067 1523 1526 
1992 1345 1323 2609 3126 1519 3369 3123 3127 
3392 2019 229 247 246 3355 2871 2073 2072 
2874 250 1240 1242 871 2707 1260 3393 2891 
2894 3375 2895 23 194 1366 20 2969 1374 
3138 2964 198 1373 374 432 1784 1363 1791 
1870 1867 1404 3358 3356 1282 1955 2007 1351 
3395 2278 3394 1706 3372 3119 672 1159 676 
2704 2979 3362 745 2913 2980 2948 1302 1937 
1955 1311 3397 2402 3396 1700 3398 3399 240 
1150 1159 2704 1171 1199 1165 2912 3078 2980 
1371 2643 330 2645 3400 2660 1400 3011 2662 
2649 2643 2023 538 2645 3401 2058 2665 2662 
3012 2655 2007 1967 1282 1351 2281 3363 3394 
3119 3402 1706 2609 1968 1981 1331 3403 2268 
3055 3056 3404 3057 1331 1922 1273 1323 3405 
3076 1639 1522 3249 1637 2019 1969 229 246 
2076 3103 3355 2072 2075 2874 1272 2017 1328 
1921 3382 3381 1631 3170 2291 3406 668 687 
131 1061 806 801 804 2766 2728 1085 891 
1061 872 181 2730 2729 1005 1001 1094 1004 
2009 1281 1937 1302 3377 3407 2404 3157 1699 
3397 1059 872 1061 181 2757 2729 1087 1074 
1004 1094 131 1059 668 1061 1070 2762 804 
1085 1087 2766 1351 2007 1967 2670 3119 2281 
3402 3122 3121 3408 1972 2643 537 2642 3021 
2666 2246 3022 2661 2663 1326 2643 2642 329 
3025 2661 3023 1524 2659 2657 1937 1302 1281 
1311 3397 1699 3407 3398 1700 1701 1325 2421 
1328 2017 3114 3409 1428 3116 3115 3381 1763 
1971 1307 1993 3411 3410 3379 3134 2085 3380 
1064 874 178 1063 2746 993 1089 1080 2848 
1090 670 1064 128 1063 2747 1075 793 2847 
1080 1079 2469 492 1991 2468 2605 2234 3164 
2551 2602 3165 338 2669 1351 2670 2683 3118 
1538 2687 2688 3122 2017 1272 1325 1921 3382 
1630 3116 2291 3170 3412 2008 1273 1967 1364 
3156 3247 2284 3093 1638 3413 1967 1323 1282 
1322 3248 1708 3363 3414 1636 1707 1929 1967 
1968 1323 2352 2296 2351 3365 3248 3415 153 
1157 1155 2703 1191 1192 1190 3416 3417 2828 
614 76 657 616 626 706 2852 632 641 
2853 880 1148 1155 154 3419 1196 3418 965 
1194 1189 590 865 52 2709 2982 3420 597 
2984 2926 3421 2011 1311 1281 1350 3367 1701 
3422 3131 1536 1698 1343 2010 2470 1306 3163 
3063 3161 1506 3066 3065 1969 229 1368 2019 
3103 1419 3423 2076 3355 3424 2422 255 1325 
2421 2438 1427 3113 2441 2430 3114 2609 318 
2608 1345 2626 2624 2628 3127 1514 3125 525 
2607 1992 2608 2635 3154 2260 2638 2625 3124 
1325 1272 1330 1980 1630 1629 1421 3425 3169 
3044 1366 20 1291 1940 1373 1377 1379 3139 
3159 3373 192 1103 1104 2706 3047 1127 3426 
3027 2978 3051 1325 229 1368 1969 1420 1419 
1422 3427 3103 3423 340 565 2023 1371 2672 
3428 2957 1401 3429 2958 856 860 873 2702 
1026 1024 1025 2805 2769 3110 669 656 652 
2702 822 820 821 3086 2768 2745 1212 678 
113 1211 2988 771 1227 1232 2987 1230 1211 
163 1212 882 1239 1237 1232 3430 975 3431 
1327 2023 1974 2645 2956 2251 3049 3013 3012 
3432 1328 1367 1272 1921 1632 1633 1631 3406 
3433 3170 2007 2668 545 2669 3147 2696 2277 
3120 2685 2697 1784 1309 374 1363 3142 1624 
1867 3356 1626 1404 1921 1328 1367 1973 3406 
1632 3433 2294 3434 3435 1974 2671 548 340 
3136 2693 2286 3048 2689 2692 286 2470 1333 
1306 2553 3064 1392 1504 3065 1507 1273 1323 
1967 1322 1637 3248 3247 1635 1636 3414 1967 
1922 1968 1323 2297 2295 2296 3248 3249 3415 
2667 336 2668 1350 2677 2681 2682 3132 1532 
3130 2611 523 2009 1344 2619 2252 3080 3081 
3436 3082 1783 2005 430 1782 3242 2149 1918 
1866 3246 1917 229 230 1368 2019 233 1418 
1419 3355 3354 3424 1333 2010 1976 1306 3062 
2242 3437 1507 3066 3438 659 188 688 2707 
2821 3439 731 2879 2877 3440 863 892 188 
2707 935 3441 2824 2876 3442 2877 1331 1922 
1968 1981 3405 2295 3404 3057 2299 2268 1343 
2468 1991 1293 3166 3165 3167 1503 3443 3444 
2607 316 2611 1344 2620 2617 2622 3083 1508 
3081 1281 2011 1937 1311 3422 2405 3407 1701 
3367 3398 240 659 1210 2707 2911 3445 1216 
2981 2879 3446 240 1210 863 2707 1216 3447 
2914 2981 3446 2876 2671 1364 2008 2670 3092 
3093 3091 2691 3448 3449 1355 1768 1303 1998 
3210 3450 1580 3213 3212 3451 1952 1354 1765 
1997 3453 3215 3452 2103 3218 3217 1952 1765 
1354 1996 3452 3215 3453 2100 3237 3236 1768 
1346 1303 1998 3238 1577 3450 3212 3241 3451 
1760 1296 1353 1994 3454 1562 3231 3227 3455 
3233 1296 1760 1347 1994 3454 3226 1559 3455 
3227 3229 1349 1991 2468 1293 3353 3165 3352 
1500 3444 3443 1329 1272 1367 1921 1628 1633 
1634 3456 3170 3433 2005 1946 1781 1361 2151 
3457 3250 3252 3458 3253 1332 1995 2450 1951 
3264 3263 3262 3459 2172 3460 2450 1982 1332 
1951 3268 3267 3262 3460 2175 3459 2004 1360 
1780 1305 3259 3260 3257 3461 1613 3462 1295 
2471 1348 1984 3463 3300 1455 3464 3304 3303 
2460 1339 1987 1299 3294 3293 3288 3465 1476 
3466 2465 1941 1990 1342 3467 2229 3269 3273 
3468 3271 1987 1340 2460 1299 3290 3289 3288 
3466 1479 3465 1337 1985 2456 1942 3297 3299 
3295 3469 2196 3470 2006 1338 2446 1297 3316 
3315 3314 3471 1467 3472 1337 1942 2456 2006 
3469 3470 3295 3319 2199 3318 1988 1341 2462 
1300 3325 3327 3310 3473 1485 3474 2458 1338 
1986 1298 3323 3322 3278 3475 1470 3476 2463 
1988 1950 1341 3324 2220 3477 3326 3325 3478 
2461 1949 1988 1340 3479 2217 3309 3291 3480 
3311 1986 1339 2458 1298 3280 3279 3278 3476 
1473 3475 2462 1340 1988 1300 3312 3311 3310 
3474 1482 3473 2451 1983 1335 1943 3285 3284 
3283 3481 2181 3482 1949 2461 1987 1340 3479 
3287 2214 3480 3291 3290 2459 1948 1987 1339 
3483 2211 3292 3281 3484 3293 1348 1984 2454 
1944 3303 3302 3301 3485 2190 3486 1947 2457 
2006 1338 3487 3313 2202 3488 3317 3316 2459 
1986 1948 1339 3277 2208 3483 3281 3280 3484 
2471 1295 1336 1984 3463 1452 3305 3304 3464 
3307 2457 1947 1986 1338 3487 2205 3321 3317 
3488 3322 2452 1294 1335 1983 3489 1446 3282 
3286 3490 3284 2446 1337 2006 1297 3320 3319 
3314 3472 1464 3471 2463 1950 1989 1341 3477 
2223 3338 3326 3478 3339 1989 1342 2464 1301 
3333 3334 3331 3491 1491 3492 2454 1985 1348 
1944 3337 3336 3301 3486 2193 3485 2464 1341 
1989 1301 3340 3339 3331 3492 1488 3491 1335 
1982 2451 1943 3330 3329 3283 3482 2178 3481 
2465 1989 1941 1342 3332 2226 3467 3273 3333 
3468 1780 1361 2004 1305 3346 3345 3257 3462 
1616 3461 1294 2452 1336 1983 3489 3341 1449 
3490 3286 3343 1781 1946 2004 1361 3457 2148 
3344 3253 3458 3345 1358 1776 2002 1318 3189 
3188 3190 1601 3493 3494 1314 2003 1778 1359 
3496 3183 3495 1607 3186 3185 1958 1771 2000 
1356 3497 3199 2121 3498 3174 3201 1773 1959 
2000 1357 3499 2124 3178 3179 3500 3180 1771 
1958 1999 1356 3497 2118 3173 3174 3498 3175 
1358 2001 1774 1317 3198 3193 3197 1598 3501 
3502 1773 2001 1959 1357 3192 2127 3499 3179 
3195 3500 1357 1774 2001 1317 3194 3193 3195 
1595 3502 3501 1357 2000 1772 1313 3180 3177 
3181 1592 3503 3504 1356 1772 2000 1313 3200 
3177 3201 1589 3504 3503 1356 1999 1770 1312 
3175 3172 3176 1586 3505 3506 1318 1776 2002 
1359 3493 3188 3494 1604 3204 3203 1961 1777 
2003 1359 3507 3182 2139 3508 3184 3186 1777 
1961 2002 1359 3507 2136 3202 3184 3508 3203 
1775 2002 1960 1358 3187 2133 3509 3191 3190 
3510 1775 1960 2001 1358 3509 2130 3196 3191 
3510 3198 659 12 672 240 721 720 723 
2911 241 2910 240 863 17 876 2914 926 
242 2915 927 923 261 2447 1334 2449 2480 
3149 1429 2477 2482 3150 1937 1955 1945 1302 
2402 2346 2403 3397 3396 3511 1360 2003 1778 
1314 3225 3183 3223 1610 3496 3495 1766 1354 
1316 1997 3214 1571 3512 3216 3218 3513 1355 
1770 1999 1312 3221 3172 3220 1583 3506 3505 
1957 1355 1769 1999 3515 3209 3514 2115 3220 
3219 1993 1347 1761 1956 3208 3205 3207 2088 
3516 3517 1998 1767 1346 1964 3240 3239 3241 
2109 3518 3519 1998 1355 1769 1957 3213 3209 
3211 2112 3515 3514 1354 1785 1308 1996 3234 
3520 1568 3236 3235 3521 1764 1994 1353 1963 
3232 3233 3230 3522 2094 3523 1994 1761 1347 
1956 3228 3205 3229 2091 3517 3516 2003 1779 
1965 1360 3222 3524 2142 3225 3224 3525 2005 
1362 1320 1782 3243 1622 3526 3246 3245 3527 
1992 1323 1282 1929 3369 1708 3368 2349 3365 
3364 863 858 876 2704 1044 1043 927 2826 
2784 2916 672 654 659 2704 840 839 723 
2913 2783 2823 1782 1320 2005 1361 3527 3526 
3246 3251 1619 3252 1764 1963 1353 1996 3522 
3523 3230 3255 2097 3256 1785 1353 1308 1996 
3254 1565 3520 3235 3256 3521 1779 2004 1965 
1360 3258 2145 3524 3224 3259 3525 1332 2448 
1319 1982 3265 3528 1440 3267 3266 3529 2466 
1342 1990 1315 3272 3271 3270 3530 1494 3531 
1997 1346 1767 1964 3275 3239 3276 2106 3519 
3518 2455 1337 1310 1985 3296 1461 3532 3298 
3297 3533 1766 1316 1346 1997 3512 1574 3274 
3216 3513 3275 2453 1984 1336 1962 3308 3307 
3306 3534 2187 3535 2448 1335 1319 1982 3328 
1443 3528 3266 3330 3529 2455 1310 1348 1985 
3532 1458 3335 3298 3533 3336 1336 1983 2453 
1962 3343 3342 3306 3535 2184 3534 1966 2467 
1990 1349 3536 3347 2232 3537 3350 3349 1990 
1349 2466 1315 3349 3348 3270 3531 1497 3530 
2017 1325 1969 1921 3116 3427 2162 2291 3412 
2290 2012 1362 1784 1309 3359 3360 3140 3144 
1625 3142 2447 1332 1304 1995 3261 1437 3538 
3153 3264 3539 1922 1972 1331 1273 2301 3376 
3405 3076 3033 1639 617 673 615 2709 3540 
3072 644 3541 3542 3543 1945 1929 1992 1282 
2348 2349 2262 3391 3364 3368 617 615 877 
2709 644 3074 3544 3541 3543 3545 1991 2467 
1966 1349 3351 3536 2235 3353 3350 3537 1103 
220 1104 2706 3070 3546 1127 2978 3041 3051 
1321 1977 315 1344 3548 3547 1393 1510 3549 
1509 1292 1939 2020 1363 3551 2420 3550 1406 
3552 3553 2447 1304 1334 1995 3538 1434 3149 
3153 3539 3151 2010 1976 494 1333 2242 2243 
2240 3062 3437 3109 1324 1938 1367 1973 3555 
3554 1757 3556 2414 3435 1783 372 1362 1782 
1865 1620 3244 1866 1861 3245 408 1762 1761 
1993 1873 1800 1874 2083 3133 3207 416 1768 
1769 1998 1889 1824 1890 2107 3212 3211 426 
1779 2003 1778 1910 3222 2137 1909 1854 3183 
424 1777 2002 1776 1906 3202 2131 1905 1848 
3188 1775 423 2002 1776 1903 2132 3187 1845 
1904 3188 1771 419 2000 1772 1895 2120 3199 
1833 1896 3177 1769 417 1999 1770 1891 2114 
3219 1827 1892 3172 355 1765 1354 1766 1810 
3215 1567 1814 1815 3214 422 1775 2001 1774 
1902 3196 2125 1901 1842 3193 1777 425 2003 
1778 1907 2138 3182 1851 1908 3183 1999 1770 
418 1771 3172 1893 2113 3173 1830 1894 1357 
1773 1774 363 3179 1839 3194 1591 1834 1838 
2000 1772 420 1773 3177 1897 2119 3178 1836 
1898 1773 421 2001 1774 1899 2126 3192 1839 
1900 3193 1775 1358 1774 364 3191 3197 1842 
1841 1596 1837 1356 1770 1771 360 3176 1830 
3174 1584 1825 1829 1356 1771 1772 361 3174 
1833 3200 1585 1828 1832 410 1760 1764 1994 
1877 1806 1878 2089 3227 3232 1357 1772 1773 
362 3181 1836 3179 1590 1831 1835 1358 1775 
1776 365 3191 1845 3189 1597 1840 1844 1765 
354 1354 1785 1811 1566 3215 1812 1807 3234 
1777 1359 1776 366 3184 3204 1848 1847 1602 
1843 1359 1777 1778 367 3184 1851 3185 1603 
1846 1850 409 1761 1760 1994 1875 1803 1876 
2090 3228 3227 1768 415 1767 1998 1888 1887 
1821 3212 2108 3240 2668 1351 337 2669 3148 
1537 2680 2685 3118 2684 663 654 676 2704 
842 844 744 2802 2783 2948 858 867 880 
2704 1047 966 1048 2784 2804 3557 24 236 
692 2702 237 2884 3558 3559 2885 2714 896 
236 25 2702 2886 238 3560 2717 2885 3561 
2008 1922 1967 1273 2298 2297 2284 3156 3076 
3247 1782 1781 371 1361 1863 1858 1862 3251 
3253 1615 1780 2004 427 1779 3257 2144 1912 
1857 3258 1911 2450 263 1332 2448 2484 1435 
3262 2488 2486 3265 1785 411 1764 1996 1880 
1879 1809 3235 2096 3255 475 2471 2453 1984 
2571 2500 2568 2185 3304 3308 1785 353 1353 
1764 1808 1561 3254 1809 1804 3230 270 2456 
1337 2455 2507 3295 1460 2505 2509 3296 2448 
264 1335 2451 2487 1442 3328 2491 2489 3283 
414 1766 1767 1997 1885 1818 1886 2101 3216 
3276 1360 1778 1779 368 3223 1854 3224 1608 
1849 1853 356 1766 1346 1767 1813 3274 1572 
1817 1818 3239 359 1769 1355 1770 1822 3209 
1579 1826 1827 3221 350 1762 1347 1761 1795 
3206 1554 1799 1800 3205 281 2465 2466 1342 
2538 2542 2540 1489 3273 3272 2455 1348 269 
2454 3335 1453 2504 2506 3301 2502 2467 282 
2466 1349 2543 2541 2545 3350 1496 3348 2467 
490 1990 2466 2601 2228 3347 2545 2598 3270 
474 2453 2452 1983 2569 2497 2566 2180 3342 
3286 1330 229 23 20 1375 2932 3043 1376 
232 2964 2607 2009 1945 1302 3079 2259 3389 
3158 3157 3511 128 683 670 1063 792 794 
793 1079 2996 2847 178 874 887 1063 993 
992 990 1090 2848 2993 491 2467 1991 2468 
2600 3351 2233 2603 2548 3165 1331 2609 1968 
1323 3056 3403 3404 1522 3392 3415 2005 1781 
429 1782 3250 1915 2150 3246 1863 1916 1332 
2447 262 2450 3261 2481 1436 3262 2485 2483 
1349 2468 2467 283 3352 2548 3350 1495 2546 
2544 489 2465 1990 2466 2596 3269 2227 2599 
2542 3270 2453 1336 266 2452 3306 1448 2495 
2497 3341 2493 473 2452 2451 1983 2567 2494 
2564 2179 3286 3285 2471 268 1348 2454 2499 
1454 3300 2503 2501 3301 2446 1338 2457 272 
3315 3317 2515 2511 1466 2513 265 2452 1335 
2451 2492 3282 1441 2490 2494 3283 413 1765 
1766 1997 1883 1815 1884 2102 3217 3216 2006 
479 2456 2446 2197 2576 3318 3314 2579 2512 
1760 351 1347 1761 1802 1555 3226 1803 1798 
3205 2461 1988 485 2462 3309 2215 2588 2530 
3310 2591 280 2464 2465 1342 2535 2539 2537 
1490 3334 3273 358 1768 1355 1769 1819 3210 
1578 1823 1824 3209 1768 357 1346 1767 1820 
1573 3238 1821 1816 3239 1987 2460 483 2459 
3288 2587 2209 3292 2524 2584 1985 2454 2455 
477 3337 2506 3298 2191 2572 2575 1341 2464 
2463 279 3340 2536 3326 1483 2534 2532 2461 
484 1987 2460 2589 2210 3287 2527 2586 3288 
2459 482 1986 2458 2585 2204 3277 2521 2582 
3278 1338 2458 2457 273 3323 2518 3317 1465 
2516 2514 486 2462 1988 2463 2590 3310 2216 
2593 2533 3324 352 1760 1353 1764 1801 3231 
1560 1805 1806 3230 2461 276 2460 1340 2525 
2523 2527 3291 1478 3289 1341 2463 2462 278 
3326 2533 3327 1484 2531 2529 277 2461 2462 
1340 2526 2530 2528 1477 3291 3312 2459 274 
2458 1339 2519 2517 2521 3281 1472 3279 2460 
275 2459 1339 2522 2520 2524 3294 1471 3281 
1780 1360 1779 369 3260 3224 1857 1856 1609 
1852 1985 2455 2456 478 3298 2509 3299 2192 
2574 2577 2448 1982 2450 471 3266 3268 2488 
2563 2173 2560 2457 1986 481 2458 3321 2203 
2580 2518 3278 2583 2457 480 2006 2446 2581 
2198 3313 2515 2578 3314 2447 470 2450 1995 
2558 2561 2485 3153 2168 3263 2463 1989 487 
2464 3338 2221 2592 2536 3331 2595 2451 1982 
2448 472 3329 3266 2491 2565 2174 2562 2471 
476 2454 1984 2570 2573 2503 3304 2186 3302 
267 2471 1336 2453 2498 3305 1447 2496 2500 
3306 1337 2446 2456 271 3320 2512 3295 1459 
2510 2508 1765 412 1785 1996 1882 1881 1812 
3237 2095 3235 317 2607 2608 1345 2621 2625 
2623 1515 3155 3125 2464 1989 488 2465 3331 
2222 2594 2539 3332 2597 1781 1361 1780 370 
3253 3346 1860 1859 1614 1855 2468 1343 2469 
284 3166 3162 2551 2547 1502 2549 428 1781 
2004 1780 1914 3344 2143 1913 1860 3257 1969 
2422 1325 2017 3562 3113 3427 2162 3117 3116 
1366 1365 194 2018 1413 1417 1374 3137 3042 
3068 1929 1955 2007 1282 2347 2278 2350 3364 
3395 3394 1291 202 1106 1105 1408 1118 3384 
3388 1115 1120 1282 1967 2007 1929 3363 2281 
3394 3364 2352 2350 2008 1364 1967 2670 3093 
3413 2284 3449 3448 3408 1955 1311 2668 1351 
3399 3366 3371 3372 1539 3148 1324 1290 1367 
1938 1660 1756 1757 3555 3563 3554 879 859 
861 2706 1049 1050 912 2863 2921 2858 657 
655 675 2706 845 846 708 2856 2922 2861 
871 1242 892 2707 3393 3564 1010 2895 3375 
3442 1302 1282 1945 1345 1703 3391 3511 1516 
1705 3390 1333 494 2470 286 3109 2556 3064 
1392 2555 2553 688 14 188 659 726 189 
3439 731 729 2821 1302 1945 2607 1345 3511 
3389 3158 1516 3390 3155 1307 1762 349 1993 
3565 1796 1551 3380 3133 3135 543 335 2667 
1350 2676 2678 2679 3566 1531 3132 75 617 
612 2709 639 640 635 3567 3541 2928 673 
657 76 616 780 706 778 3073 2853 641 
1973 1938 1367 1975 2414 3554 3435 2293 2413 
3568 2014 1329 1291 1105 3569 1409 3385 3387 
3570 3388 2009 523 1977 1344 2252 2255 2254 
3082 3436 3549 1762 1307 1347 1993 3565 1556 
3206 3133 3380 3208 861 877 83 616 950 
947 909 2859 3075 650 231 2424 2423 248 
2816 2437 3001 2778 2815 3002 1939 1292 1289 
1363 3551 1750 3571 3552 1406 1752 1937 1945 
2009 1302 2403 2259 2404 3397 3511 3157 83 
618 861 616 631 2881 909 650 634 2859 
1367 1938 1290 1975 3554 3563 1756 3568 2413 
3572 407 1763 1762 1993 1871 1797 1872 2084 
3134 3133 1311 1955 1282 1351 3399 3395 1704 
1539 3372 1706 469 2447 2449 1995 2559 2482 
2557 2167 3153 3152 1331 1972 1922 1981 3376 
2301 3405 3057 2302 2299 857 894 2705 2708 
1037 2808 3098 3099 2817 2819 653 2705 690 
2708 3096 2809 833 3097 2819 2818 617 82 
612 2709 648 645 640 3541 3573 2928 1157 
1153 1155 2703 1207 1206 1192 3417 3383 2828 
684 130 687 1061 796 802 803 3053 1084 
2728 1061 891 888 180 2730 1002 2999 1095 
1000 996 2015 1276 1324 1938 3575 1661 3574 
2411 3576 3555 349 1352 1307 1763 1549 1553 
1551 1792 3577 3379 617 877 82 2709 3544 
948 648 3541 3545 3573 673 617 75 2709 
3540 639 777 3542 3541 3567 1970 2449 1334 
1995 3579 3150 3578 2169 3152 3151 1953 2469 
1991 1343 3580 3164 2238 3581 3162 3167 1929 
1992 1323 1968 2349 3369 3365 2351 2265 3415 
2607 524 2009 2611 2636 2253 3079 2622 2634 
3080 1281 1978 2011 1350 3582 2272 3422 1698 
3583 3131 1321 1939 1977 1292 3584 2419 3548 
1696 3551 3585 1968 1922 1331 1323 2295 3405 
3404 3415 3249 1522 1153 663 1154 2703 3586 
2955 1180 3383 2801 2829 2469 2010 493 2470 
3160 2239 2604 2554 3063 2606 1954 1362 2005 
1783 3587 3243 2154 3588 3244 3242 1276 1324 
1334 2015 1661 1431 1667 3575 3574 3589 1981 
1331 1972 1369 3057 3376 2302 3100 1523 3067 
75 612 661 2709 635 2924 776 3567 2928 
2927 1329 1921 1367 1975 3456 3433 1634 3590 
2292 3568 1992 2609 1323 1968 3123 3392 3369 
2265 3403 3415 315 1977 523 1344 3547 2255 
2618 1509 3549 3436 1936 1289 1306 1309 3592 
1753 3591 3593 1754 1692 892 1242 871 172 
3564 3393 1010 932 1253 1009 236 24 692 
2424 237 3558 2884 2425 2426 2710 2424 236 
25 896 2425 238 2428 2715 2886 3560 661 
74 666 613 775 697 757 2935 621 2954 
1211 882 1241 170 3430 3594 2989 3595 977 
1261 2011 2668 1955 1311 3129 3371 2275 3367 
3366 3399 870 81 865 613 900 946 944 
2952 623 2934 878 1212 163 882 2920 1237 
971 976 3431 975 113 674 678 1212 769 
773 771 1227 2930 2988 1062 130 684 1061 
1082 796 2810 1086 1084 3053 888 1062 1061 
180 2811 1086 2999 996 1092 1095 1307 1763 
1352 1971 3379 3577 1553 3410 3411 3596 869 
221 222 2708 2942 225 3597 2940 2846 2971 
665 194 193 2708 3598 197 2941 2938 2970 
2845 75 661 673 2709 776 779 777 3567 
2927 3542 82 877 865 2709 948 949 945 
3573 3545 2926 1149 676 105 1159 2946 743 
1183 1185 3362 1163 527 1968 1981 2609 2264 
2268 2266 2639 3403 3055 2609 1331 319 1323 
3056 1521 2627 3392 1522 1517 82 865 612 
2709 945 2923 645 3573 2926 2928 1979 1289 
1936 1309 3599 3592 2399 3143 1754 3593 1955 
1937 2011 1311 2402 2405 2275 3399 3398 3367 
562 2021 2644 1369 3600 3028 2648 3601 3030 
3032 63 884 587 588 943 2795 611 608 
2943 606 885 1158 873 2702 3105 3602 960 
3107 3038 3110 2671 1364 340 1327 3092 1544 
2689 3095 1547 1546 2008 2671 548 1974 3091 
2693 2282 2285 3136 2286 1331 1981 2610 1369 
3057 3054 3058 1523 3100 3146 56 587 680 
588 604 2797 756 602 606 2945 1291 1272 
1329 2014 1627 1628 1409 3385 3603 3569 1158 
152 1151 885 1187 1168 1188 3105 918 3106 
112 667 674 1213 766 770 768 1224 2898 
2931 1213 162 871 878 1235 968 2890 2918 
972 973 1328 1921 2017 1973 3406 2291 3381 
3434 2294 2051 1210 12 659 240 1214 721 
3445 1216 241 2911 17 240 1210 863 242 
1216 1220 926 2914 3447 565 2023 1371 2645 
3428 2958 3429 2651 3012 3011 1953 1936 2010 
1306 2396 2397 2241 3604 3591 3066 590 52 
661 2709 597 3605 2983 2984 3421 2927 1937 
1978 2011 1281 2407 2272 2405 3407 3582 3422 
1362 1784 373 1783 3360 1868 1621 3244 1869 
1864 1152 681 669 2702 3606 738 3085 3036 
3607 3086 1327 1974 2643 2645 3049 3069 3035 
3013 3432 2662 546 1967 2007 2670 2280 2281 
2276 2699 3408 3121 1286 1961 1933 1314 3609 
2378 3608 1735 3610 3611 1961 1286 1932 1318 
3609 3612 2370 3613 1731 3614 1284 1959 1931 
1317 3616 2360 3615 1721 3617 3618 1284 1930 
1959 1313 3619 2356 3616 1717 3620 3621 1285 
1960 1932 1318 3623 2367 3622 1728 3624 3614 
1960 1285 1931 1317 3623 3625 2363 3626 1724 
3618 1283 1958 1930 1313 3628 2353 3627 1714 
3629 3620 1958 1283 1928 1312 3628 3630 2342 
3631 1710 3632 1926 1278 1316 1964 3634 1676 
3633 2325 3635 3636 1957 1928 1275 1312 2339 
3638 3637 3639 3632 1653 1925 1308 1274 1963 
3641 1645 3640 2318 3642 3643 1287 1933 1965 
1314 3645 2374 3644 1738 3611 3646 1315 1934 
1966 1288 3648 2385 3647 1748 3649 3650 1325 
255 1328 2421 1427 1387 1428 3114 2430 3409 
1926 1316 1277 1952 3633 1673 3651 2330 3652 
3653 1927 1275 1303 1957 3655 1655 3654 2332 
3637 3656 1277 1962 1295 1926 3658 3657 1671 
3651 2329 3659 1275 1927 1310 1942 3655 3660 
1657 3661 2334 3662 1924 1279 1319 1951 3664 
1682 3663 2316 3665 3666 1924 1296 1279 1956 
3667 1681 3664 2315 3668 3669 1927 1303 1278 
1964 3654 1678 3670 2336 3671 3635 1274 1924 
1319 1943 3672 3663 1649 3673 2313 3674 1296 
1924 1274 1963 3667 3672 1647 3675 2311 3643 
1927 1278 1310 1944 3670 1679 3660 2337 3676 
3677 1962 1277 1294 1925 3658 1668 3678 2322 
3679 3680 1287 1965 1934 1305 3644 2381 3681 
1740 3682 3683 1308 1925 1277 1952 3641 3679 
1669 3684 2323 3653 1934 1315 1941 1287 3648 
3685 2382 3681 1741 3686 1286 1933 1950 1301 
3608 2379 3687 1733 3688 3689 1283 1930 1947 
1298 3627 2354 3690 1712 3691 3692 1948 1298 
1930 1284 3693 3691 2358 3694 1716 3619 1299 
1931 1949 1285 3696 2365 3695 1723 3625 3697 
1949 1285 1932 1300 3697 3622 2368 3698 1726 
3699 1928 1283 1947 1297 3630 3690 2344 3700 
1709 3701 1931 1299 1948 1284 3696 3702 2361 
3615 1719 3694 1932 1286 1950 1300 3612 3687 
2372 3699 1730 3703 1295 1944 1278 1926 3704 
3676 1675 3659 2327 3634 1294 1925 1274 1943 
3680 3640 1643 3705 2319 3673 1275 1928 1942 
1297 3638 2340 3661 1651 3700 3706 1941 1301 
1933 1287 3707 3688 2376 3686 1737 3645 1946 
1288 1934 1305 3708 3649 2386 3709 1747 3683 
1936 1954 2012 1309 2395 2157 2398 3593 3710 
3144 1282 1351 1967 1322 1706 3402 3363 1707 
1542 3414 1941 1342 1989 1301 3468 3333 2226 
3707 1491 3491 1341 1988 1950 1300 3325 2220 
3478 1485 3473 3703 1338 1947 1986 1298 3488 
2205 3322 1470 3692 3476 1339 1986 1948 1298 
3280 2208 3484 1473 3476 3693 1338 2006 1947 
1297 3316 2202 3488 1467 3471 3701 1295 1984 
1348 1944 3464 3303 1455 3704 2190 3485 1339 
1948 1987 1299 3484 2211 3293 1476 3702 3466 
1949 1340 1987 1299 3480 3290 2214 3695 1479 
3466 1340 1949 1988 1300 3480 2217 3311 1482 
3698 3473 2006 1337 1942 1297 3319 3469 2199 
3471 1464 3706 1341 1950 1989 1301 3478 2223 
3339 1488 3689 3491 1983 1294 1335 1943 3490 
1446 3284 2181 3705 3482 1361 1946 2004 1305 
3458 2148 3345 1616 3709 3461 2469 1343 2470 
285 3162 3161 2554 2550 1501 2552 526 1992 
1968 2609 2261 2265 2263 2640 3123 3403 2010 
2469 1953 1343 3160 3580 2241 3163 3162 3581 
1288 1946 1935 1320 3708 2389 3711 1745 3712 
3713 1288 1935 1966 1293 3711 2388 3650 1744 
3714 3715 2449 1334 260 2015 3150 1430 2476 
3716 3589 3717 1952 1316 1354 1997 3652 1571 
3453 2103 3513 3218 1355 1998 1303 1957 3213 
3451 1580 3515 2112 3656 1308 1952 1354 1996 
3684 3453 1568 3521 2100 3236 1296 1994 1347 
1956 3455 3229 1559 3668 2091 3516 1998 1346 
1303 1964 3241 1577 3451 2109 3519 3671 1994 
1296 1353 1963 3455 1562 3233 2094 3675 3523 
1991 1349 1966 1293 3353 3537 2235 3444 1500 
3715 895 1060 52 2709 3089 1065 3718 3090 
2992 3421 691 52 1060 2709 3719 1065 3087 
3088 3421 2992 1976 1306 1936 1289 3438 3591 
2401 3720 1753 3592 1156 103 1153 2703 1175 
1179 1181 3101 3721 3383 315 523 2611 1344 
2618 2619 2616 1509 3436 3081 1995 1332 1304 
1951 3264 1437 3539 2172 3459 3722 1320 1946 
2005 1361 3712 2151 3526 1619 3458 3252 1982 
1319 1332 1951 3529 1440 3267 2175 3666 3459 
1985 1337 1310 1942 3297 1461 3533 2196 3469 
3662 1984 1295 1336 1962 3464 1452 3307 2187 
3657 3535 1965 1360 2004 1305 3525 3259 2145 
3682 1613 3461 1982 1335 1319 1943 3330 1443 
3529 2178 3482 3674 1342 1941 1990 1315 3468 
2229 3271 1494 3685 3531 1985 1310 1348 1944 
3533 1458 3336 2193 3677 3485 1294 1983 1336 
1962 3490 3343 1449 3678 2184 3535 1959 1357 
2001 1317 3500 3195 2127 3617 1595 3501 1358 
2002 1960 1318 3190 2133 3510 1601 3494 3624 
2000 1357 1959 1313 3180 3500 2124 3503 1592 
3621 1318 2002 1961 1359 3494 2136 3613 1604 
3203 3508 1358 1960 2001 1317 3510 2130 3198 
1598 3626 3501 1958 1356 2000 1313 3498 3201 
2121 3629 1589 3503 2003 1314 1961 1359 3496 
3610 2139 3186 1607 3508 1356 1958 1999 1312 
3498 2118 3175 1586 3631 3505 680 43 682 
568 694 733 735 2799 578 3004 48 886 
568 884 936 3014 580 899 939 2794 1355 
1999 1957 1312 3220 2115 3515 1583 3505 3639 
2003 1360 1965 1314 3225 3525 2142 3496 1610 
3646 1158 873 2702 2703 3602 3110 3038 3102 
3111 2950 862 894 875 2708 1014 1042 917 
2902 2817 2961 671 690 658 2708 838 809 
713 2973 2818 2974 1276 2015 1970 1938 3575 
2166 3723 3576 2411 2410 1963 1308 1353 1996 
3642 1565 3523 2097 3521 3256 1346 1997 1316 
1964 3275 3513 1574 3519 2106 3636 1966 1349 
1990 1315 3537 3349 2232 3647 1497 3531 1938 
1352 1290 2016 3724 1663 3563 2412 3725 3726 
1967 1322 1351 2670 3414 1542 3402 3408 3727 
3122 1304 1951 1279 1923 3722 3665 1684 3728 
2305 3729 202 1291 1329 1105 1408 1409 1380 
1115 3388 3570 674 1212 112 1213 2930 1228 
768 2931 1229 1224 162 1213 1212 878 1235 
1229 1236 972 2918 2920 171 1241 878 882 
1262 3046 1008 1006 3594 976 1921 1329 1272 
2014 3456 1628 3170 2289 3569 3603 1281 1977 
1978 1292 3730 2406 3582 1695 3585 3731 1334 
1970 1276 2015 3578 3723 1667 3589 2166 3575 
523 315 559 1321 2618 2612 2614 3732 1393 
3733 1359 1778 1314 367 3185 3495 1607 1603 
1850 1605 1312 1770 1356 360 3506 3176 1586 
1582 1825 1584 1313 1356 1772 361 1589 3200 
3504 1587 1585 1832 1960 423 2002 1775 2128 
2132 2133 3509 1903 3187 1961 425 2003 1777 
2134 2138 2139 3507 1907 3182 1958 419 2000 
1771 2116 2120 2121 3497 1895 3199 1776 1359 
1318 366 3204 1604 3493 1843 1602 1600 1317 
1774 1358 364 3502 3197 1598 1594 1837 1596 
1318 1358 1776 365 1601 3189 3493 1599 1597 
1844 1317 1357 1774 363 1595 3194 3502 1593 
1591 1838 1993 1761 408 1956 3207 1874 2083 
2088 3517 2087 1998 1769 416 1957 3211 1890 
2107 2112 3514 2111 1999 1769 1957 417 3219 
3514 2115 2114 1891 2110 1354 1316 355 1766 
1571 1569 1567 3214 3512 1814 424 1961 2002 
1777 2135 2136 2131 1906 3507 3202 426 1965 
2003 1779 2141 2142 2137 1910 3524 3222 1994 
1764 410 1963 3232 1878 2089 2094 3522 2093 
421 2001 1959 1773 2126 2127 2122 1899 3192 
3499 418 1958 1999 1771 2117 2118 2113 1894 
3497 3173 420 1959 2000 1773 2123 2124 2119 
1898 3499 3178 2001 422 1960 1775 2125 2129 
2130 3196 1902 3509 1357 1313 1772 362 1592 
3504 3181 1590 1588 1831 1354 354 1308 1785 
1566 1564 1568 3234 1807 3520 1362 372 1320 
1782 1620 1618 1622 3245 1861 3527 1994 409 
1761 1956 2090 1875 3228 2091 2086 3517 1998 
415 1767 1964 2108 1887 3240 2109 2104 3518 
2668 1311 337 1351 3366 1535 2680 3148 1539 
1537 672 105 676 1159 719 743 745 2979 
1163 3362 1978 1977 1939 1292 2406 2419 2418 
3731 3585 3551 1322 1967 1273 1364 3414 3247 
1635 1545 3413 1638 871 1242 1240 172 3393 
1260 2891 1009 1253 1264 1782 371 1320 1361 
1862 1617 3527 3251 1615 1619 427 2004 1965 
1779 2144 2145 2140 1911 3258 3524 1963 1764 
411 1996 3522 1879 2092 2097 3255 2096 1332 
263 1319 2448 1435 1439 1440 3265 2486 3528 
1337 1310 270 2455 1461 1456 1460 3296 3532 
2505 1997 1767 414 1964 3276 1886 2101 2106 
3518 2105 1308 353 1353 1785 1563 1561 1565 
3520 1808 3254 1314 1778 1360 368 3495 3223 
1610 1606 1849 1608 1984 2453 475 1962 3308 
2568 2185 2187 3534 2183 359 1770 1355 1312 
1826 3221 1579 1581 3506 1583 1335 1319 264 
2448 1443 1438 1442 3328 3528 2487 1316 1346 
356 1766 1574 1572 1570 3512 3274 1813 1310 
1348 269 2455 1458 1453 1457 3532 3335 2504 
1342 2466 281 1315 3272 2540 1489 1494 3530 
1493 1983 474 2453 1962 2180 2569 3342 2184 
2182 3534 1311 2668 336 1350 3366 2681 1534 
1536 3130 1532 1349 282 2466 1315 1496 2541 
3348 1497 1492 3530 1966 490 1990 2467 2230 
2228 2232 3536 2601 3347 1148 1150 880 2704 
1197 3734 3419 2866 3078 3557 429 1946 1781 
2005 2146 3457 1915 2150 2151 3250 489 1941 
1990 2465 2225 2229 2227 2596 3467 3269 283 
1349 2468 1293 1495 3352 2546 1499 1500 3443 
1294 266 1336 2452 1444 1448 1449 3489 2493 
3341 1983 2451 473 1943 3285 2564 2179 2181 
3481 2177 1952 1765 413 1997 3452 1883 2098 
2103 3217 2102 1942 479 2456 2006 2195 2576 
3470 2199 2197 3318 1295 268 1348 2471 1450 
1454 1455 3463 2499 3300 272 2446 1338 1297 
2511 3315 1466 1462 3472 1467 1988 1950 486 
2463 2220 2218 2216 3324 3477 2593 316 2607 
1302 1344 2620 3158 1512 1508 3083 1513 477 
1985 2454 1944 2191 3337 2572 2189 2193 3486 
1949 1988 485 2461 2217 2215 2213 3479 3309 
2588 358 1303 1355 1768 1576 1580 1578 1819 
3450 3210 1346 1303 357 1768 1577 1575 1573 
3238 3450 1820 1296 351 1347 1760 1557 1555 
1559 3454 1802 3226 1949 484 1987 2461 2212 
2210 2214 3479 2589 3287 2458 1339 274 1298 
3279 1472 2517 3475 1473 1468 2458 273 1338 
1298 2516 1465 3323 3475 1469 1470 1780 1305 
1360 369 3462 1613 3260 1856 1611 1609 483 
1948 1987 2459 2207 2211 2209 2584 3483 3292 
2464 1342 280 1301 3334 1490 2535 3492 1491 
1486 1948 482 1986 2459 2206 2204 2208 3483 
2585 3277 279 1341 2464 1301 1483 3340 2534 
1487 1488 3492 1294 1335 265 2452 1446 1441 
1445 3489 3282 2492 2450 471 1982 1951 2560 
2173 3268 3460 2171 2175 1986 481 1947 2457 
2203 2201 2205 3321 2580 3487 2006 1947 480 
2457 2202 2200 2198 3313 3487 2581 1339 2460 
275 1299 3294 2522 1471 1476 3465 1475 1340 
276 2460 1299 1478 2523 3289 1479 1474 3465 
278 2462 1341 1300 2529 3327 1484 1480 3474 
1485 1989 487 1950 2463 2221 2219 2223 3338 
2592 3477 2450 1995 470 1951 3263 2168 2561 
3460 2172 2170 1340 2462 277 1300 3312 2528 
1477 1482 3474 1481 2607 317 1302 1345 2621 
1511 3158 3155 1515 1516 1765 1952 412 1996 
3452 2099 1882 3237 2100 2095 2454 1984 476 
1944 3302 2186 2573 3486 2190 2188 478 2456 
1985 1942 2577 3299 2192 2194 3470 2196 352 
1296 1353 1760 1558 1562 1560 1801 3454 3231 
472 2451 1982 1943 2565 3329 2174 2176 3481 
2178 267 1295 1336 2471 1451 1452 1447 2498 
3463 3305 2446 271 1337 1297 2510 1459 3320 
3472 1463 1464 488 1989 1941 2465 2222 2226 
2224 2597 3332 3467 1305 1780 1361 370 3462 
3346 1616 1612 1855 1614 284 2468 1343 1293 
2547 3166 1502 1498 3443 1503 2004 428 1946 
1781 2143 2147 2148 3344 1914 3457 1977 1281 
1321 1292 3730 1697 3548 3585 1695 1696 2668 
544 2667 2011 2695 2694 2682 3129 2270 3128 
1289 1939 1321 1292 3571 3584 1751 1750 3551 
1696 55 682 42 570 734 732 693 3735 
3060 581 1936 1979 1976 1289 2399 2400 2401 
3592 3599 3720 2012 431 1784 1783 2156 1920 
3140 3361 1919 1869 2010 1343 1953 1306 3163 
3581 2241 3066 1506 3604 262 1332 1304 2447 
1436 1437 1432 2481 3261 3538 491 1966 1991 
2467 2231 2235 2233 2600 3536 3351 164 882 
1211 170 974 3430 1238 928 977 3595 261 
1304 1334 2447 1433 1434 1429 2480 3538 3149 
492 1991 1953 2469 2234 2238 2236 2605 3164 
3580 315 523 1977 1321 2618 2255 3547 1393 
3732 3548 857 874 869 2708 1038 1039 1040 
3099 2754 2940 653 665 670 2708 834 835 
836 3097 2938 2755 1371 1327 2643 2645 1530 
3035 3400 3011 3013 2662 2643 1974 2023 2645 
3069 2251 3401 2662 3432 3012 562 528 2021 
1369 2615 2057 3600 3601 3378 3030 1362 2012 
1954 1309 3359 2157 3587 1625 3144 3710 1280 
1936 1953 1306 3737 2396 3736 1691 3591 3604 
653 690 671 2708 833 838 837 3097 2818 
2973 875 894 857 2708 1042 1037 1041 2961 
2817 3099 1322 338 1351 2670 1540 1538 1542 
3727 2687 3122 863 19 188 892 934 190 
2824 935 931 3441 52 691 4 2709 3719 
702 53 3421 3088 3738 1362 1954 2012 1783 
3587 2157 3359 3244 3588 3361 1280 1954 1936 
1309 3739 2395 3737 1693 3710 3593 1280 1953 
1935 1293 3736 2393 3740 1687 3741 3714 525 
1945 1992 2607 2258 2262 2260 2635 3389 3154 
1307 1923 1279 1956 3742 3729 1685 3743 2303 
3669 659 14 188 679 729 189 2821 730 
727 2820 39 870 3 884 2883 901 41 
2796 902 898 2643 329 1326 1327 2659 1524 
3025 3035 1528 1529 1972 1974 537 2643 2250 
2248 2246 3021 3069 2666 2 666 39 680 
696 2887 40 695 698 2798 1993 1307 1347 
1956 3380 1556 3208 2088 3743 3516 1159 672 
12 240 2979 720 1164 1165 2910 241 1345 
2609 318 1323 3127 2626 1514 1519 3392 1518 
1955 2668 545 2007 3371 2696 2273 2278 3147 
2277 528 320 2610 1369 2632 2630 2633 3378 
1397 3146 861 890 177 1060 987 985 988 
2904 2837 1069 686 657 127 1060 789 788 
787 2834 2903 1067 2005 430 1954 1783 2149 
2153 2154 3242 1918 3588 880 1155 867 154 
3418 3744 966 965 1189 961 230 247 2423 
2019 2787 3003 3019 3354 2073 3745 1303 1998 
1927 1957 3451 2338 3654 3656 2112 2332 1277 
1316 1354 1952 1673 1571 1674 3653 3652 3453 
1998 1303 1927 1964 3451 3654 2338 2109 3671 
2336 1277 1354 1308 1952 1674 1568 1669 3653 
3453 3684 1994 1296 1924 1956 3455 3667 2317 
2091 3668 2315 1994 1924 1296 1963 2317 3667 
3455 2094 2311 3675 1318 1961 1286 1359 3613 
3609 1731 1604 3508 1736 1356 1283 1958 1312 
1715 3628 3498 1586 1710 3631 2000 1930 1958 
1313 2359 2353 2121 3503 3620 3629 1357 1959 
1284 1317 3500 3616 1722 1595 3617 1721 1356 
1958 1283 1313 3498 3628 1715 1589 3629 1714 
1959 1357 1284 1313 3500 1722 3616 3621 1592 
1717 2003 1933 1961 1314 2380 2378 2139 3496 
3611 3610 2001 1931 1959 1317 2366 2360 2127 
3501 3618 3617 1931 2001 1960 1317 2366 2130 
2363 3618 3501 3626 1932 2002 1961 1318 2373 
2136 2370 3614 3494 3613 1358 1285 1960 1317 
1729 3623 3510 1598 1724 3626 1358 1960 1285 
1318 3510 3623 1729 1601 3624 1728 1932 1960 
2002 1318 2367 2133 2373 3614 3624 3494 1928 
1957 1999 1312 2339 2115 2345 3632 3639 3505 
1959 1930 2000 1313 2356 2359 2124 3621 3620 
3503 1961 1314 1286 1359 3610 1735 3609 3508 
1607 1736 1928 1999 1958 1312 2345 2118 2342 
3632 3505 3631 1965 1933 2003 1314 2374 2380 
2142 3646 3611 3496 1280 1935 1954 1320 3740 
2391 3739 1688 3713 3746 1283 1947 1338 1298 
3690 3488 1711 1712 3692 1470 1950 1286 1341 
1300 3687 1732 3478 3703 1730 1485 1931 1987 
1948 1299 2362 2211 2361 3696 3466 3702 1286 
1950 1341 1301 3687 3478 1732 1733 3689 1488 
1285 1949 1340 1300 3697 3480 1725 1726 3698 
1482 1283 1338 1947 1297 1711 3488 3690 1709 
1467 3701 1950 1988 1932 1300 2220 2369 2372 
3703 3473 3699 1948 1986 1930 1298 2208 2355 
2358 3693 3476 3691 1298 1948 1339 1284 3693 
3484 1473 1716 3694 1718 1932 1988 1949 1300 
2369 2217 2368 3699 3473 3698 1299 1949 1340 
1285 3695 3480 1479 1723 3697 1725 1986 1947 
1930 1298 2205 2354 2355 3476 3692 3691 1947 
2006 1928 1297 2202 2341 2344 3701 3471 3700 
1948 1299 1339 1284 3702 1476 3484 3694 1719 
1718 2006 1942 1928 1297 2199 2340 2341 3471 
3706 3700 1987 1931 1949 1299 2362 2365 2214 
3466 3696 3695 1348 1278 1295 1944 1677 1675 
1455 3485 3676 3704 1944 1295 1984 1926 3704 
3464 2190 2327 3659 2328 1274 1335 1294 1943 
1646 1446 1643 3673 3482 3705 1301 1941 1342 
1287 3707 3468 1491 1737 3686 1739 1942 1337 
1275 1297 3469 1654 3661 3706 1464 1651 1989 
1950 1933 1301 2223 2379 2377 3491 3689 3688 
1925 1294 1983 1943 3680 3490 2320 2319 3705 
2181 1361 1288 1946 1305 1749 3708 3458 1616 
1747 3709 1989 1933 1941 1301 2377 2376 2226 
3491 3688 3707 1934 2004 1946 1305 2387 2148 
2386 3683 3461 3709 1321 2022 1939 1289 3747 
2417 3584 1751 3748 3571 1310 1927 1985 1942 
3660 2335 3533 3662 2334 2196 1277 1336 1295 
1962 1670 1452 1671 3658 3535 3657 1278 1303 
1346 1964 1678 1577 1680 3635 3671 3519 1347 
1279 1296 1956 1683 1681 1559 3516 3669 3668 
1952 1926 1316 1997 2330 3633 3652 2103 2331 
3513 1952 1308 1925 1996 3684 3641 2323 2100 
3521 2324 1274 1353 1296 1963 1650 1562 1647 
3643 3523 3675 1303 1275 1355 1957 1655 1658 
1580 3656 3637 3515 1924 1982 1319 1943 2314 
3529 3663 2313 2178 3674 1360 1965 1287 1305 
3525 3644 1743 1613 3682 1740 1924 1319 1982 
1951 3663 3529 2314 2316 3666 2175 1336 1277 
1294 1962 1670 1668 1449 3535 3658 3678 1927 
1310 1985 1944 3660 3533 2335 2337 3677 2193 
1934 1990 1941 1315 2383 2229 2382 3648 3531 
3685 1288 1966 1349 1293 3650 3537 1746 1744 
3715 1500 1332 1319 1279 1951 1440 1682 1686 
3459 3666 3665 1310 1337 1275 1942 1461 1654 
1657 3662 3469 3661 2004 1934 1965 1305 2387 
2381 2145 3461 3683 3682 1319 1335 1274 1943 
1443 1646 1649 3674 3482 3673 1295 1962 1984 
1926 3657 2187 3464 3659 2329 2328 1941 1315 
1342 1287 3685 1494 3468 3686 1741 1739 1348 
1310 1278 1944 1458 1679 1677 3485 3677 3676 
1946 1320 1288 1361 3712 1745 3708 3458 1619 
1749 1962 1294 1983 1925 3678 3490 2184 2322 
3680 2320 1966 1935 1991 1293 2388 2394 2235 
3715 3714 3444 1963 1925 1308 1996 2318 3641 
3642 2097 2324 3521 1316 1278 1346 1964 1676 
1680 1574 3636 3635 3519 1316 1997 1926 1964 
3513 2331 3633 3636 2106 2325 1274 1308 1353 
1963 1645 1565 1650 3643 3642 3523 1957 1275 
1355 1312 3637 1658 3515 3639 1653 1583 1360 
1287 1965 1314 1743 3644 3525 1610 1738 3646 
1990 1934 1966 1315 2383 2385 2232 3531 3648 
3647 1315 1966 1349 1288 3647 3537 1497 1748 
3650 1746 523 559 2022 1321 2614 3749 2054 
3732 3733 3747 1307 1347 350 1762 1556 1554 
1552 3565 3206 1795 1304 1332 1279 1951 1437 
1686 1684 3722 3459 3665 1935 1946 2005 1320 
2389 2151 2390 3713 3712 3526 876 880 1150 
2704 967 3734 3077 2916 3557 3078 1951 1304 
1995 1923 3722 3539 2172 2305 3728 2306 1276 
1970 1304 1923 3723 3750 1664 3751 2310 3728 
1292 1978 335 403 3731 3752 1403 3753 3754 
2673 857 887 874 2705 1035 992 1038 3098 
2994 2832 653 670 683 2705 836 794 832 
3096 2831 2998 1973 1367 1921 1975 3435 3433 
2294 2293 3568 2292 1923 1307 1276 1971 3742 
1666 3751 2309 3410 3755 1280 1953 1343 1306 
3736 3581 1690 1691 3604 1506 1152 1158 1151 
2702 1204 1188 1198 3036 3038 3108 674 121 
678 1241 782 781 773 3039 1254 2991 1281 
2009 1977 1344 3377 2254 3730 1702 3082 3549 
1362 1954 1280 1309 3587 3739 1694 1625 3710 
1693 1953 1343 1991 1293 3581 3167 2238 3741 
1503 3444 1362 373 1784 1309 1621 1868 3360 
1625 1623 3142 285 1343 2470 1306 1501 3161 
2552 1505 1506 3065 1304 1307 1276 1923 1665 
1666 1664 3728 3742 3751 1240 878 871 172 
2919 973 2891 1264 1007 1009 2422 463 2421 
2017 2445 2434 2441 3117 2045 3115 893 869 
859 2706 956 1053 1054 3009 2939 2921 665 
689 655 2706 763 850 848 2937 3007 2922 
543 335 1978 403 2676 3752 2042 2674 2673 
3754 1977 1978 1937 1281 2406 2407 2408 3730 
3582 3407 663 1154 103 1153 2955 1178 739 
3586 1180 1179 1961 1933 1950 1286 2378 2379 
2371 3609 3608 3687 1948 1959 1931 1284 2357 
2360 2361 3694 3616 3615 1297 1928 1283 1312 
3700 3630 1709 1652 3632 1710 1960 1949 1931 
1285 2364 2365 2363 3623 3697 3625 1930 1284 
1298 1313 3619 1716 3691 3620 1717 1713 1298 
1283 1930 1313 1712 3627 3691 1713 1714 3620 
1949 1960 1932 1285 2364 2367 2368 3697 3623 
3622 1926 1277 1962 1952 3651 3658 2329 2330 
3653 2321 1933 1301 1286 1314 3688 1733 3608 
3611 1734 1735 1958 1930 1947 1283 2353 2354 
2343 3628 3627 3690 1931 1285 1299 1317 3625 
1723 3696 3618 1724 1720 1300 1932 1286 1318 
3699 3612 1730 1727 3614 1731 1932 1300 1285 
1318 3699 1726 3622 3614 1727 1728 1295 1316 
1277 1926 1672 1673 1671 3659 3633 3651 1279 
1951 1924 1956 3665 2316 3664 3669 2304 2315 
1275 1303 1310 1927 1655 1656 1657 3655 3654 
3660 1942 1275 1927 1957 3661 3655 2334 2333 
3637 2332 1277 1925 1962 1952 3679 2322 3658 
3653 2323 2321 1297 1275 1928 1312 1651 3638 
3700 1652 1653 3632 1284 1931 1299 1317 3615 
3696 1719 1721 3618 1720 1933 1287 1301 1314 
3645 1737 3688 3611 1738 1734 1930 1959 1948 
1284 2356 2357 2358 3619 3616 3694 1928 1958 
1947 1283 2342 2343 2344 3630 3628 3690 1294 
1308 1274 1925 1644 1645 1643 3680 3641 3640 
1278 1926 1944 1964 3634 2327 3676 3635 2325 
2326 1932 1961 1950 1286 2370 2371 2372 3612 
3609 3687 1943 1925 1274 1963 2319 3640 3673 
2312 2318 3643 1287 1934 1315 1305 3681 3648 
1741 1740 3683 1742 1944 1927 1278 1964 2337 
3670 3676 2326 2336 3635 1278 1316 1295 1926 
1676 1672 1675 3634 3633 3659 1296 1279 1319 
1924 1681 1682 1648 3667 3664 3663 1957 1942 
1275 1928 2333 3661 3637 2339 2340 3638 1278 
1310 1303 1927 1679 1656 1678 3670 3660 3654 
1943 1274 1924 1963 3673 3672 2313 2312 3643 
2311 1308 1294 1277 1925 1644 1668 1669 3641 
3680 3679 1274 1296 1319 1924 1647 1648 1649 
3672 3667 3663 1941 1965 1934 1287 2375 2381 
2382 3686 3644 3681 1933 1965 1941 1287 2374 
2375 2376 3645 3644 3686 1934 1288 1315 1305 
3649 1748 3648 3683 1747 1742 1966 1934 1946 
1288 2385 2386 2384 3650 3649 3708 1967 1364 
1322 2670 3413 1545 3414 3408 3448 3727 1352 
1290 1276 1938 1663 1659 1662 3724 3563 3576 
1954 1320 2005 1362 3746 3526 2154 3587 1622 
3243 2018 1366 1106 1940 3137 3757 3756 2038 
3139 3758 335 543 1978 1350 2676 2042 3752 
1531 3566 3583 1365 1366 1107 2018 1413 3759 
3017 3042 3137 3370 1935 1293 1288 1320 3714 
1744 3711 3713 1689 1745 1966 1946 1935 1288 
2384 2389 2388 3650 3708 3711 1293 1935 1280 
1320 3714 3740 1687 1689 3713 1688 682 568 
43 570 3004 578 733 3060 584 582 886 
48 568 570 936 580 3014 3071 585 584 
1241 878 1240 171 3046 2919 1259 1262 1008 
1263 2014 1106 1291 1940 3386 3384 3385 2063 
3758 3373 1292 1978 1281 1350 3731 3582 1695 
1533 3583 1698 2022 1977 523 1321 2256 2255 
2054 3747 3548 3732 1279 1347 1307 1956 1683 
1556 1685 3669 3516 3743 2008 547 2671 2670 
2283 2701 3091 3449 2700 2691 1364 2671 339 
2670 3092 2690 1543 3448 2691 2686 1307 1993 
1923 1956 3380 2307 3742 3743 2088 2303 1153 
1157 1156 2703 1207 1208 1181 3383 3417 3101 
1978 1292 335 1350 3731 1403 3752 3583 1533 
1531 1936 1306 1280 1309 3591 1691 3737 3593 
1692 1693 680 682 56 588 735 753 756 
2945 3005 602 211 2014 1106 1105 2026 3386 
1129 1117 3387 1120 193 1107 1103 221 3016 
1126 2977 2844 3168 2976 1971 1763 407 1993 
3411 1871 2080 2085 3134 2084 1953 1280 1343 
1293 3736 1690 3581 3741 1687 1503 2449 1970 
469 1995 3579 2165 2557 3152 2169 2167 1970 
1334 1304 1995 3578 1434 3750 2169 3151 3539 
1242 188 892 2707 1249 3441 3564 3375 2877 
3442 1279 1923 1951 1956 3729 2305 3665 3669 
2303 2304 1974 2023 538 2643 2251 2058 2249 
3069 3401 2665 1327 2643 330 1371 3035 2660 
1527 1530 3400 1400 1979 432 2020 1363 2159 
2041 2160 3357 3358 3553 199 1975 1370 2016 
3762 3761 3760 3763 2031 3764 667 122 674 
1240 784 783 770 2897 1257 2929 1991 1935 
1953 1293 2394 2393 2238 3444 3714 3741 1331 
2610 320 1369 3058 2630 1520 1523 3146 1397 
2021 528 1981 2610 2057 2267 2269 3145 2633 
3054 1320 1954 1280 1362 3746 3739 1688 1622 
3587 1694 2014 1921 1329 1975 2289 3456 3569 
2029 2292 3590 1971 1352 1938 2016 3596 3724 
2409 2082 3725 2412 2009 1977 1937 1281 2254 
2408 2404 3377 3730 3407 260 468 2449 2015 
2478 2479 2476 3717 2048 3716 2423 1368 230 
2019 3765 1418 3019 3745 3424 3354 663 1153 
103 2703 3586 1179 739 2801 3383 3721 2022 
1321 1333 1289 3747 1395 3766 3748 1751 1755 
675 192 1104 2706 3767 3426 3050 2861 3027 
3051 1923 1276 1970 1971 3751 3723 2310 2309 
3755 2308 1242 122 667 1240 1248 784 3374 
1260 1257 2897 1279 1307 1304 1923 1685 1665 
1684 3729 3742 3728 2642 328 2644 1369 2656 
2647 2658 3031 1398 3032 536 2644 2021 2642 
2652 3028 2056 2664 2658 3029 1241 674 121 
1240 3039 782 1254 1259 2929 1258 1954 1935 
2005 1320 2391 2390 2154 3746 3713 3526 260 
1334 1324 2015 1430 1431 1388 3717 3589 3574 
590 5 52 865 599 54 597 2982 904 
3420 657 673 691 2709 780 854 790 2965 
3542 3088 895 877 861 2709 1058 950 989 
3090 3545 2966 1242 667 688 2707 3374 785 
3768 3375 2899 3440 669 1156 102 1152 3084 
1174 736 3085 1176 1162 1970 1334 2449 2015 
3578 3150 3579 2166 3589 3716 52 4 661 
2709 53 699 3605 3421 3738 2927 1328 556 
1324 1973 3770 3769 1390 3434 3771 3556 1324 
1276 1290 1938 1661 1659 1660 3555 3576 3563 
556 260 1324 2015 2472 1388 3769 3772 3717 
3574 884 63 886 588 943 940 939 2943 
608 3015 1975 1290 1370 2016 3572 1759 3761 
2031 3726 3764 682 588 570 589 3005 3061 
3060 3773 603 3774 883 872 1059 181 1003 
2757 2758 929 1004 1074 668 131 679 1059 
804 728 805 2762 1070 2761 1954 1953 1935 
1280 2392 2393 2391 3739 3736 3740 870 587 
63 884 2882 611 941 902 2795 943 128 
670 686 1064 793 795 786 1075 2747 2833 
178 890 874 1064 986 994 993 1089 2838 
2746 1975 1370 1329 199 3761 1384 3590 3762 
3760 3775 1148 1149 1150 2704 1200 1201 1197 
2866 2949 3078 896 25 885 2702 3560 3776 
922 2717 3561 3107 24 692 681 2702 3558 
718 3777 3559 2714 3607 883 19 188 863 
930 190 2825 933 934 2824 1242 688 188 
2707 3768 3439 1249 3375 3440 2877 220 879 
1104 2706 3778 3052 3546 3041 2863 3051 52 
5 895 2709 54 905 3718 3421 3779 3090 
1156 1157 1158 2703 1208 1193 1205 3101 3417 
3102 1368 2422 1325 1969 3780 3113 1422 3423 
3562 3427 1363 432 2020 403 3358 2041 3553 
3781 1789 3782 1324 1367 1328 1973 1757 1632 
1390 3556 3435 3434 1939 2022 1976 1289 2417 
2244 2416 3571 3748 3720 1159 1150 1149 2704 
1199 1201 1185 2980 3078 2949 1157 153 873 
2703 1191 958 3783 3417 3416 3111 570 55 
682 589 3735 734 3060 3774 593 3773 875 
869 222 2708 957 3597 3010 2961 2940 2971 
671 194 665 2708 3020 3598 764 2973 2970 
2938 1995 1304 1970 1923 3539 3750 2169 2306 
3728 2310 153 1155 867 2703 1190 3744 962 
3416 2828 2803 1945 524 2009 2607 2257 2253 
2259 3389 2636 3079 1290 1370 1329 1975 1759 
1384 1758 3572 3761 3590 1352 1938 1276 1971 
3724 3576 1662 3596 2409 3755 1953 2010 493 
2469 2241 2239 2237 3580 3160 2604 2421 556 
1328 2017 2432 3770 3409 3115 3784 3381 111 
667 1213 2707 765 2898 1225 3785 2899 2893 
1213 871 161 2707 2890 969 1234 2893 2895 
3786 1106 1366 1291 1940 3757 1379 3384 3758 
3139 3373 680 56 666 587 756 755 698 
2797 604 2888 468 260 556 2015 2478 2472 
2474 2048 3717 3772 885 873 860 2702 960 
1024 1057 3107 3110 2769 669 681 656 2702 
738 853 822 3086 3607 2768 1107 1366 1106 
2018 3759 3757 1123 3370 3137 3756 1365 193 
1107 204 1416 3016 3017 1410 1415 1122 1107 
221 2013 213 3168 2070 3018 1130 2069 2065 
1969 1368 2422 2019 3423 3780 3562 2076 3424 
3787 885 1158 152 873 3105 1187 918 960 
3602 959 2017 556 1328 1973 3784 3770 3381 
2051 3771 3434 2015 1324 556 1973 3574 3769 
3772 2049 3556 3771 2023 565 340 548 3428 
2672 2957 2060 2675 2692 1953 1954 1936 1280 
2392 2395 2396 3736 3739 3737 1281 1977 1321 
1344 3730 3548 1697 1702 3549 1510 199 1329 
2014 1105 3775 3569 3788 1113 3570 3387 1307 
1971 1923 1993 3410 2309 3742 3380 2085 2307 
661 4 52 590 699 53 3605 2983 596 
597 1158 1157 873 2703 1193 3783 3602 3102 
3417 3111 880 876 1150 155 967 3077 3734 
964 924 1169 1276 1334 1304 1970 1667 1434 
1664 3723 3578 3750 666 2 39 613 696 
40 2887 2954 619 620 870 39 3 613 
2883 41 901 2952 620 622 861 177 895 
1060 988 906 989 2904 1069 3089 691 127 
657 1060 701 788 790 3087 1067 2903 1976 
2022 494 1333 2244 2052 2243 3437 3766 3109 
1333 1976 2022 1289 3437 2244 3766 1755 3720 
3748 102 681 669 1152 715 738 736 1162 
3606 3085 1938 1324 2015 1973 3555 3574 2411 
2414 3556 2049 559 494 2022 1333 2475 2052 
3749 3789 3109 3766 1363 374 432 403 1404 
1791 3358 3781 1788 1789 1969 463 2422 2017 
2163 2445 3562 2162 2045 3117 880 1150 1148 
155 3734 1197 3419 964 1169 1195 1363 2020 
1292 403 3553 3550 1406 3781 3782 3753 3 
568 39 884 579 577 41 898 2794 2796 
2 680 39 568 695 2798 40 576 2799 
577 885 860 896 2702 1057 1056 922 3107 
2769 2717 692 656 681 2702 852 853 718 
2714 2768 3607 1352 348 1370 2016 1548 1383 
1550 3725 3790 3764 588 682 55 589 3005 
734 601 603 3773 593 406 1370 348 2016 
3791 1383 1790 2027 3764 3790 1289 1309 1979 
1363 1754 3143 3599 1752 1626 3357 865 5 
52 2709 904 54 3420 2926 3779 3421 1210 
111 1213 2707 1215 1225 1226 3446 3785 2893 
1210 1213 161 2707 1226 1234 1221 3446 2893 
3786 122 667 688 1242 784 785 725 1248 
3374 3768 2422 1368 254 2423 3780 1425 2439 
2440 3765 2436 865 590 64 870 2982 600 
903 944 2985 942 74 661 75 612 775 
776 78 636 2924 635 320 528 562 1369 
2632 2615 2613 1397 3378 3601 1368 2423 2422 
2019 3765 2440 3780 3424 3745 3787 1955 544 
2668 2011 2274 2695 3371 2275 2270 3129 431 
2012 1954 1783 2156 2157 2152 1919 3361 3588 
1939 2020 1978 1292 2420 2044 2418 3551 3550 
3731 406 199 1370 2016 1787 3760 3791 2027 
3763 3764 659 111 1210 2707 722 1215 3445 
2879 3785 3446 863 1210 161 2707 3447 1221 
925 2876 3446 3786 17 1150 240 876 1170 
1171 242 923 3077 2915 1292 2020 1978 403 
3550 2044 3731 3753 3782 3754 192 7 675 
1104 195 2900 3767 3426 1109 3050 1306 1976 
1333 1289 3438 3437 1507 1753 3720 1755 1241 
678 1211 1243 2991 2987 2989 1256 3792 3793 
588 886 570 589 3015 3071 3061 603 3794 
3774 1938 1970 1276 1971 2410 3723 3576 2409 
2308 3755 1241 1243 1211 170 1256 3793 2989 
1261 1251 3595 1352 1276 1307 1971 1662 1666 
1553 3596 3755 3410 114 1211 678 1243 1231 
2987 772 3795 3793 3792 1290 1329 1367 1975 
1758 1634 1756 3572 3590 3568 657 6 76 
614 707 80 706 2852 625 626 82 865 
81 612 945 946 85 645 2923 646 587 
64 590 870 610 600 607 2882 942 2985 
1107 193 1103 204 3016 2977 1126 1122 1415 
1124 221 1107 1103 213 3168 1126 2976 2069 
1130 1133 328 2642 1326 1369 2656 3023 1525 
1398 3031 1526 2021 1972 536 2642 2247 2245 
2056 3029 3022 2664 1370 1290 1352 2016 1759 
1663 1550 3764 3726 3725 55 570 42 589 
3735 581 693 593 3774 3796 1156 669 103 
2703 3084 737 1175 3101 3112 3721 220 879 
8 1104 3778 2936 223 3546 3052 1111 1064 
177 890 1060 1088 985 2838 1077 1069 2837 
127 1064 686 1060 1076 2833 787 1067 1077 
2834 1242 188 19 892 1249 190 1252 3564 
3441 931 12 659 111 1210 721 722 115 
1214 3445 1215 17 863 1210 161 926 3447 
1220 165 925 1221 669 652 663 2703 821 
828 741 3112 2800 2801 867 856 873 2703 
1034 1025 963 2803 2850 3111 47 570 886 
589 586 3071 937 3797 3774 3794 4 691 
661 2709 702 703 699 3738 3088 2927 1975 
1329 2014 199 3590 3569 2029 3762 3775 3788 
462 2422 2423 2019 2444 2440 2442 2079 3787 
3745 1333 559 494 286 3789 2475 3109 1392 
2473 2555 9 861 83 618 908 909 87 
628 2881 631 663 676 104 1154 744 742 
740 2955 2947 1177 887 857 866 2705 1035 
1036 997 2994 3098 3000 683 662 653 2705 
799 831 832 2998 2742 3096 1151 25 236 
2702 1166 238 1173 3108 3561 2885 675 7 
6 614 2900 69 704 2896 624 625 667 
111 659 2707 765 722 767 2899 3785 2879 
863 161 871 2707 925 969 970 2876 3786 
2895 1149 104 676 1154 1182 742 2946 1184 
1177 2947 1976 1979 1939 1289 2400 2415 2416 
3720 3599 3571 193 89 194 665 1100 1102 
197 2941 761 3598 1976 2010 1936 1306 2242 
2397 2401 3438 3066 3591 675 689 192 2706 
760 3026 3767 2861 3007 3027 1352 1971 1763 
2016 3596 3411 3577 3725 2082 3798 1940 2014 
1106 211 2063 3386 3758 2061 2026 1129 199 
1370 348 406 3760 1383 1786 1787 3791 1790 
1107 2018 1106 212 3370 3756 1123 1131 2066 
1128 1936 2012 1979 1309 2398 2158 2399 3593 
3144 3143 1364 339 1322 2670 1543 1541 1545 
3448 2686 3727 1967 547 2008 2670 2279 2283 
2284 3408 2700 3449 236 1152 1151 2702 1172 
1198 1173 2885 3036 3108 683 128 129 1063 
792 134 791 2996 1079 1078 887 179 178 
1063 991 184 990 2993 1091 1090 2022 1939 
1977 1321 2417 2419 2256 3747 3584 3548 1290 
1975 1938 2016 3572 2413 3563 3726 2031 2412 
1366 1107 1106 203 3759 1123 3757 1412 1121 
1119 30 1292 335 403 1402 1403 341 404 
3753 2673 1970 2449 468 2015 3579 2479 2164 
2166 3716 2048 590 64 5 865 600 68 
599 2982 903 904 315 27 559 1321 321 
560 2612 1393 1394 3733 570 569 42 589 
583 573 581 3774 3799 3796 1241 882 171 
170 3594 1006 1262 1261 977 174 868 147 
248 247 981 1268 2779 2782 1270 251 220 
893 879 2706 3040 953 3778 3041 3009 2863 
678 120 114 1243 774 724 772 3792 1244 
3795 1152 236 24 2702 1172 237 1161 3036 
2885 3559 886 47 48 570 937 50 936 
3071 586 585 682 43 42 570 733 45 
732 3060 582 581 867 1155 153 154 3744 
1190 962 961 1189 158 617 673 76 615 
3540 778 638 644 3072 643 111 667 112 
1213 765 766 116 1225 2898 1224 162 1213 
871 161 1235 2890 968 166 1234 969 617 
83 877 615 647 947 3544 644 649 3074 
172 1240 878 171 1264 2919 1007 175 1263 
1008 1151 885 25 2702 3106 3776 1166 3108 
3107 3561 1333 2022 559 1321 3766 3749 3789 
1395 3747 3733 675 6 657 614 704 707 
708 2896 625 2852 663 103 669 2703 739 
737 741 2801 3721 3112 867 873 153 2703 
963 958 962 2803 3111 3416 25 248 2424 
896 252 2815 2428 3560 2867 2715 865 895 
5 2709 907 905 904 2926 3090 3779 4 
691 52 1060 702 3719 53 1066 3087 1065 
113 678 114 1211 771 772 118 1230 2987 
1231 882 1211 163 164 3430 1239 975 974 
1238 168 676 654 672 2704 844 840 745 
2948 2783 2913 876 858 880 2704 1043 1048 
967 2916 2784 3557 894 866 857 2705 1021 
1036 1037 2808 3000 3098 690 653 662 2705 
833 831 817 2809 3096 2742 231 692 24 
2424 2880 3558 235 2816 2710 2426 1241 120 
678 1243 1255 774 2991 1256 1244 3792 121 
674 122 1240 782 783 125 1258 2929 1257 
254 1368 230 2423 1425 1418 1424 2436 3765 
3019 120 678 121 1241 774 781 124 1255 
2991 1254 663 104 103 1154 740 108 739 
2955 1177 1178 1971 406 1763 2016 2081 1794 
3411 2082 2027 3798 26 1324 1328 556 1389 
1390 1386 557 3769 3770 260 1324 26 556 
1388 1389 287 2472 3769 557 64 587 63 
870 610 611 67 942 2882 941 666 74 
2 613 697 77 696 2954 621 619 870 
3 81 613 901 84 900 2952 622 623 
688 188 14 1242 3439 189 726 3768 1249 
1247 861 9 879 618 908 911 912 2881 
628 2909 30 1363 1292 403 1405 1406 1402 
404 3781 3753 886 62 47 589 938 897 
937 3794 595 3797 199 22 1975 2016 201 
2030 3762 3763 2028 2031 1152 24 681 2702 
1161 3777 3606 3036 3559 3607 1333 559 27 
1321 3789 560 1391 1395 3733 1394 32 2015 
556 1973 2047 3772 558 2050 2049 3771 2022 
33 494 559 2053 522 2052 3749 561 2475 
2022 523 33 559 2054 529 2053 3749 2614 
561 1368 255 1325 2422 1426 1427 1422 3780 
2438 3113 1157 153 1158 873 1191 1186 1193 
3783 958 3602 568 3 48 884 579 51 
580 2794 898 899 680 2 43 568 695 
46 694 2799 576 578 22 1975 2014 199 
2030 2029 2025 201 3762 3788 1242 892 19 
172 3564 931 1252 1253 932 176 590 666 
57 587 2986 754 598 607 2888 605 679 
14 188 1059 727 189 2820 2761 1071 1072 
1978 31 543 403 2043 549 2042 3754 405 
2674 285 2470 286 1306 2552 2553 313 1505 
3065 1504 664 96 230 231 749 1145 2785 
2791 1147 234 879 9 8 618 911 73 
2936 2909 628 629 57 666 56 587 754 
755 60 605 2888 604 374 1784 373 1309 
1867 1868 401 1624 3142 1623 661 666 57 
590 757 754 700 2983 2986 598 147 868 
146 247 981 982 150 1270 2782 1271 664 
97 96 231 750 100 749 2791 1144 1147 
556 2017 32 1973 3784 2046 558 3771 2051 
2050 661 57 4 590 700 61 699 2983 
598 596 330 329 2643 1327 333 2659 2660 
1527 1528 3035 538 537 1974 2643 541 2248 
2249 2665 2666 3069 369 1780 1305 370 1856 
3462 1611 397 1855 1612 1941 489 488 2465 
2225 516 2224 3467 2596 2597 2462 278 277 
1300 2529 305 2528 3474 1480 1481 351 1296 
352 1760 1557 1558 379 1802 3454 1801 357 
1303 358 1768 1575 1576 385 1820 3450 1819 
412 1765 413 1952 1882 1883 440 2099 3452 
2098 1949 485 484 2461 2213 512 2212 3479 
2588 2589 482 1948 483 2459 2206 2207 510 
2585 3483 2584 1950 487 486 2463 2219 514 
2218 3477 2592 2593 274 273 2458 1298 301 
2516 2517 1468 1469 3475 280 279 2464 1301 
307 2534 2535 1486 1487 3492 479 2456 478 
1942 2576 2577 506 2195 3470 2194 268 1295 
267 2471 1450 1451 295 2499 3463 2498 476 
477 2454 1944 504 2572 2573 2188 2189 3486 
317 2607 1302 316 2621 3158 1511 323 2620 
1512 480 1947 481 2457 2200 2201 508 2581 
3487 2580 2451 472 473 1943 2565 500 2564 
3481 2176 2177 470 471 2450 1951 498 2560 
2561 2170 2171 3460 275 2460 276 1299 2522 
2523 303 1475 3465 1474 2446 272 271 1297 
2511 299 2510 3472 1462 1463 1946 1781 428 
429 3457 1914 2147 2146 1915 456 2468 284 
283 1293 2547 311 2546 3443 1498 1499 1294 
265 266 2452 1445 293 1444 3489 2492 2493 
262 1304 261 2447 1432 1433 289 2481 3538 
2480 140 869 221 222 954 2942 1139 1137 
3597 225 221 869 140 139 2942 954 1139 
1140 955 143 90 194 89 665 1099 1102 
93 762 3598 761 674 113 112 1212 769 
117 768 2930 1227 1228 162 1212 163 878 
1236 1237 167 972 2920 971 246 862 15 
23 2870 916 1265 249 2959 227 1308 354 
353 1785 1564 381 1563 3520 1807 1808 414 
1767 415 1964 1886 1887 442 2105 3518 2104 
1961 424 425 1777 2135 452 2134 3507 1906 
1907 1960 422 423 1775 2129 450 2128 3509 
1902 1903 421 1959 420 1773 2122 2123 448 
1899 3499 1898 1958 418 419 1771 2117 446 
2116 3497 1894 1895 1316 356 355 1766 1570 
383 1569 3512 1813 1814 1319 263 264 2448 
1439 291 1438 3528 2486 2487 1957 1769 416 
417 3514 1890 2111 2110 1891 444 1774 364 
1317 363 1837 1594 3502 1838 391 1593 1312 
359 1770 360 1581 1826 3506 1582 387 1825 
1776 366 1318 365 1843 1600 3493 1844 393 
1599 368 1314 1778 367 1606 3495 1849 395 
1605 1850 1772 362 1313 361 1831 1588 3504 
1832 389 1587 337 2668 336 1311 2680 2681 
343 1535 3366 1534 475 2453 474 1962 2568 
2569 502 2183 3534 2182 270 1310 269 2455 
1456 1457 297 2505 3532 2504 408 1761 409 
1956 1874 1875 436 2087 3517 2086 410 1764 
411 1963 1878 1879 438 2093 3522 2092 281 
2466 282 1315 2540 2541 309 1493 3530 1492 
1965 426 427 1779 2141 454 2140 3524 1910 
1911 491 490 1966 2467 518 2230 2231 2600 
2601 3536 1320 372 371 1782 1618 399 1617 
3527 1861 1862 199 2014 22 1105 3788 2025 
201 1113 3387 1116 0 569 36 589 571 
572 37 592 3799 591 588 62 886 589 
609 938 3015 603 595 3794 2023 548 35 
565 2060 555 2059 3428 2675 567 1371 29 
340 565 1399 347 1401 3429 566 2672 211 
1106 1940 212 1129 3758 2061 216 1128 2062 
52 895 5 1060 3718 905 54 1065 3089 
1068 682 55 56 588 734 59 753 3005 
601 602 687 130 131 1061 802 136 801 
2728 1084 1085 181 891 1061 180 1001 2730 
1094 186 1000 1095 463 1969 2422 2019 2163 
3562 2445 2161 2076 3787 875 140 222 869 
914 1137 3010 957 954 3597 665 90 194 
671 762 1099 3598 764 711 3020 18 1243 
1209 243 1250 3800 1222 245 1246 1219 10 
658 229 20 709 2873 1141 191 2963 232 
15 862 246 145 916 2870 1265 148 915 
1266 406 1763 407 1971 1794 1871 434 2081 
3411 2080 469 2449 468 1970 2557 2479 496 
2165 3579 2164 164 1209 18 170 1223 1222 
169 928 3801 173 1307 350 349 1762 1552 
377 1551 3565 1795 1796 2423 247 462 2019 
3003 2078 2442 3745 2073 2079 31 1978 2020 
403 2043 2044 2040 405 3754 3782 7 192 
205 1104 195 1372 210 1109 3426 1110 229 
658 10 95 2873 709 1141 1142 710 98 
202 1329 21 1105 1380 1381 206 1115 3570 
1114 468 556 32 2015 2474 558 495 2048 
3772 2047 691 4 127 1060 702 132 701 
3087 1066 1067 62 886 63 588 938 940 
66 609 3015 608 1059 19 188 883 1073 
190 1072 2758 930 2825 431 1954 430 1783 
2152 2153 458 1919 3588 1918 544 2668 545 
1955 2695 2696 551 2274 3371 2273 673 76 
75 617 778 79 777 3540 638 639 220 
8 214 1104 223 219 2024 3546 1111 1112 
255 26 1328 2421 259 1386 1387 2430 2431 
3409 83 877 82 617 947 948 86 647 
3544 648 679 131 14 1059 728 137 727 
2761 1070 1071 527 526 1968 2609 533 2263 
2264 2639 2640 3403 318 2609 319 1323 2626 
2627 325 1518 3392 1517 1243 18 1209 170 
1250 1222 3800 1251 173 3801 1945 525 524 
2607 2258 531 2257 3389 2635 2636 1953 493 
492 2469 2237 520 2236 3580 2604 2605 547 
1967 546 2670 2279 2280 553 2700 3408 2699 
1322 339 338 2670 1541 345 1540 3727 2686 
2687 688 667 659 2707 785 767 731 3440 
2899 2879 863 871 892 2707 970 1010 935 
2876 2895 3442 25 461 2424 248 464 2429 
2428 252 2039 2815 329 2642 1326 328 2657 
3023 1524 332 2656 1525 536 1972 537 2642 
2245 2246 540 2664 3022 2663 875 857 869 
2708 1041 1040 957 2961 3099 2940 653 671 
665 2708 837 764 834 3097 2973 2938 16 
1151 152 885 1167 1168 156 919 3106 918 
406 22 199 2016 433 201 1787 2027 2028 
3763 203 1106 1291 202 1119 3384 1407 207 
1118 1408 320 562 28 1369 2613 563 327 
1397 3601 1396 34 528 2021 562 535 2057 
2055 564 2615 3600 152 1158 153 873 1187 
1186 157 959 3602 958 2018 1940 1106 212 
2038 3758 3756 2066 2062 1128 461 462 2423 
247 465 2442 2443 2077 2078 3003 230 253 
254 2423 1423 257 1424 3019 2435 2436 231 
24 253 2424 235 256 1385 2816 2426 2427 
1150 876 17 155 3077 923 1170 1169 924 
160 669 103 102 1156 737 107 736 3084 
1175 1174 180 888 1062 179 996 2811 1092 
185 995 1093 684 129 130 1062 797 135 
796 2810 1081 1082 114 1209 1211 1243 1218 
1233 1231 3795 3800 3793 31 2020 432 403 
2040 2041 460 405 3782 1789 7 675 88 
192 2900 705 1096 195 3767 1097 859 879 
893 2706 1049 953 1054 2921 2863 3009 675 
655 689 2706 846 850 760 2861 2922 3007 
881 862 145 246 980 915 979 2868 2870 
1266 96 664 230 677 749 2785 1145 747 
751 2786 868 881 146 247 983 978 982 
2782 2841 1271 1148 154 880 155 1194 965 
3419 1195 159 964 570 47 569 589 586 
575 583 3774 3797 3799 681 102 11 1152 
715 106 714 3606 1162 1160 47 62 1 
589 897 65 49 3797 595 594 1366 1106 
1291 203 3757 3384 1379 1412 1119 1407 248 
896 147 868 2867 921 1268 2779 984 981 
95 677 229 658 746 2872 1142 710 748 
2873 1 569 47 589 574 575 49 594 
3799 3797 2423 248 461 247 3002 2039 2443 
3003 251 2077 104 676 105 1149 742 743 
109 1182 2946 1183 895 177 5 1060 906 
182 905 3089 1069 1068 211 22 2014 1105 
215 2025 2026 1117 1116 3387 105 672 12 
1159 719 720 110 1163 2979 1164 122 688 
14 1242 725 726 126 1248 3768 1247 88 
689 193 192 758 3006 1101 1097 3026 196 
139 893 138 220 951 952 142 1138 3040 
1135 2421 32 556 2017 2433 558 2432 3115 
2046 3784 692 97 664 231 716 750 752 
2880 1144 2791 883 1059 19 181 2758 1073 
930 929 1074 187 230 231 253 2423 234 
1385 1423 3019 3001 2435 1370 348 21 199 
1383 375 1382 3760 1786 200 1329 1370 21 
199 1384 1382 1381 3775 3760 200 556 1328 
26 2421 3770 1386 557 2432 3409 2431 193 
689 88 89 3006 758 1101 1100 759 92 
221 893 139 220 3008 951 1140 224 3040 
1138 536 34 2021 2644 539 2055 2056 2652 
2653 3028 328 28 2644 1369 331 2646 2647 
1398 1396 3032 114 120 13 1243 724 123 
119 3795 1244 1245 247 881 146 246 2841 
978 1271 250 2868 1269 2422 462 463 2019 
2444 466 2445 3787 2079 2161 559 1333 27 
286 3789 1391 560 2473 1392 314 1363 30 
374 403 1405 402 1404 3781 404 1788 673 
661 691 2709 779 703 854 3542 2927 3088 
865 877 895 2709 949 1058 907 2926 3545 
3090 199 21 1329 1105 200 1381 3775 1113 
1114 3570 28 562 2644 1369 563 2648 2646 
1396 3601 3032 2021 2644 34 562 3028 2653 
2055 3600 2648 564 13 1209 114 1243 1217 
1218 119 1245 3800 3795 463 32 2421 2017 
467 2433 2434 2045 2046 3115 36 569 1 
589 572 574 38 591 3799 594 1368 254 
255 2422 1425 258 1426 3780 2439 2438 15 
875 222 23 913 3010 1136 227 2960 226 
686 127 128 1064 787 133 786 2833 1076 
1075 178 177 890 1064 183 985 986 1089 
1088 2838 23 862 15 875 2959 916 227 
2960 917 913 205 1103 192 193 1125 3047 
1372 1414 2977 196 1243 13 1209 243 1245 
1217 3800 1246 244 1219 547 2671 548 2008 
2701 2693 554 2283 3091 2282 340 2671 339 
1364 2689 2690 346 1544 3092 1543 543 2667 
544 2011 2679 2694 550 2271 3128 2270 147 
248 25 896 1268 252 1267 921 2867 3560 
431 1784 432 2012 1920 1870 459 2156 3140 
2155 147 896 25 16 921 3560 1267 151 
920 239 24 692 97 11 3558 716 1143 
228 717 101 220 138 9 879 1135 141 
1134 3778 910 911 671 10 20 658 712 
191 2972 713 709 2963 95 677 230 229 
746 2786 1146 1142 2872 233 214 1103 221 
220 1132 2976 2068 2024 3070 224 15 140 
222 875 144 1137 1136 913 914 3010 97 
692 24 231 716 3558 1143 1144 2880 235 
212 1107 2013 213 1131 3018 2064 217 1130 
2065 461 2423 2424 248 2443 2437 2429 2039 
3002 2815 2013 2018 1107 212 2067 3370 3018 
2064 2066 1131 1107 203 1365 204 1121 1411 
3017 1122 208 1410 95 96 230 677 99 
1145 1146 746 747 2786 1365 1107 1366 203 
3017 3759 1413 1411 1121 1412 88 7 6 
675 1096 69 91 705 2900 704 220 879 
9 8 3778 911 1134 223 2936 73 193 
205 1103 204 1414 1125 2977 1415 209 1124 
213 1103 221 214 1133 2976 2069 218 1132 
2068 681 11 24 1152 714 228 3777 3606 
1160 1161 538 2023 35 2645 2058 2059 542 
2655 3012 2654 1371 330 29 2645 1400 334 
1399 3011 2649 2650 2423 231 253 2424 3001 
1385 2435 2437 2816 2427 523 2009 524 2611 
2252 2253 530 2619 3080 2634 493 2010 494 
2470 2239 2240 521 2606 3063 2556 194 90 
20 671 1099 1098 198 3020 711 2972 546 
2007 545 2669 2276 2277 552 2698 3120 2697 
1992 526 525 2608 2261 532 2260 3124 2637 
2638 145 146 881 246 149 978 979 1266 
1269 2868 689 89 193 665 759 1100 3006 
763 761 2941 893 139 869 221 951 955 
956 3008 1140 2942 1762 408 407 1993 1873 
435 1872 3133 2083 2084 337 1351 338 2669 
1537 1538 344 2684 3118 2683 470 2447 469 
1995 2558 2559 497 2168 3153 2167 88 192 
675 689 1097 3767 705 758 3026 760 879 
138 893 220 910 952 953 3778 1135 3040 
1991 492 491 2468 2234 519 2233 3165 2602 
2603 317 2608 318 1345 2623 2624 324 1515 
3125 1514 316 315 2611 1344 322 2616 2617 
1508 1509 3081 335 336 2667 1350 342 2677 
2678 1531 1532 3132 1103 205 192 1104 1125 
1372 3047 1127 1110 3426 430 2005 429 1782 
2149 2150 457 1917 3246 1916 527 1981 528 
2610 2266 2267 534 2641 3054 2633 320 319 
2610 1331 326 2629 2630 1520 1521 3058 1334 
260 261 2449 1430 288 1429 3150 2476 2477 
90 10 20 671 94 191 1098 711 712 
2972 372 1362 373 1783 1620 1621 400 1865 
3244 1864 2003 425 426 1778 2138 453 2137 
3183 1908 1909 2002 423 424 1776 2132 451 
2131 3188 1904 1905 1354 355 354 1765 1567 
382 1566 3215 1810 1811 2001 421 422 1774 
2126 449 2125 3193 1900 1901 360 1771 1356 
361 1829 3174 1584 388 1828 1585 2000 419 
420 1772 2120 447 2119 3177 1896 1897 418 
1999 417 1770 2113 2114 445 1893 3172 1892 
365 1358 1775 364 1597 3191 1840 392 1596 
1841 1773 363 1357 362 1834 1591 3179 1835 
390 1590 415 1768 416 1998 1888 1889 443 
2108 3212 2107 366 1777 1359 367 1847 3184 
1602 394 1846 1603 409 1760 410 1994 1876 
1877 437 2090 3227 2089 348 1352 349 1763 
1548 1549 376 1793 3577 1792 220 214 1103 
1104 2024 1132 3070 3546 1112 1127 262 263 
1332 2450 290 1435 1436 2483 2484 3262 1335 
264 265 2451 1442 292 1441 3283 2489 2490 
411 1785 412 1996 1880 1881 439 2096 3235 
2095 1361 1781 371 370 3253 1858 1615 1614 
1859 398 413 1766 414 1997 1884 1885 441 
2102 3216 2101 352 1353 353 1764 1560 1561 
380 1805 3230 1804 1349 2467 282 283 3350 
2543 1496 1495 2544 310 476 2471 475 1984 
2570 2571 503 2186 3304 2185 1355 359 358 
1769 1579 386 1578 3209 1822 1823 1347 351 
350 1761 1555 378 1554 3205 1798 1799 1346 
357 356 1767 1573 384 1572 3239 1816 1817 
1990 490 489 2466 2228 517 2227 3270 2598 
2599 1779 369 1360 368 1852 1609 3224 1853 
396 1608 2456 270 1337 271 2507 1460 3295 
2508 298 1459 268 269 1348 2454 296 1453 
1454 2501 2502 3301 280 2465 281 1342 2537 
2538 308 1490 3273 1489 474 2452 473 1983 
2566 2567 501 2180 3286 2179 2004 427 428 
1780 2144 455 2143 3257 1912 1913 479 2006 
480 2446 2197 2198 507 2579 3314 2578 485 
1988 486 2462 2215 2216 513 2591 3310 2590 
1336 266 267 2453 1448 294 1447 3306 2495 
2496 274 2459 275 1339 2519 2520 302 1472 
3281 1471 482 481 1986 2458 509 2203 2204 
2582 2583 3278 1987 484 483 2460 2210 511 
2209 3288 2586 2587 279 2463 1341 278 2532 
3326 1483 306 2531 1484 273 2457 1338 272 
2514 3317 1465 300 2513 1466 471 2448 1982 
472 2563 3266 2173 499 2562 2174 477 2455 
1985 478 2575 3298 2191 505 2574 2192 276 
2461 277 1340 2525 2526 304 1478 3291 1477 
488 487 1989 2464 515 2221 2222 2594 2595 
3331 284 1343 2469 285 1502 3162 2549 312 
1501 2550 1151 16 25 885 1167 239 1166 
3106 919 3776 565 35 2023 2645 567 2059 
3428 2651 2654 3012 29 565 1371 2645 566 
3429 1399 2650 2651 3011 681 24 11 692 
3777 228 714 718 3558 717 896 25 16 
885 3560 239 920 922 3776 919 2705 888 
855 866 2813 1016 2743 3000 999 1020 2705 
855 684 662 2743 2764 2814 2742 2740 800 
2705 684 855 888 2814 2764 2743 2813 2790 
1016 2704 188 1059 679 2822 1072 2760 2763 
2820 2761 2704 1059 188 883 2760 1072 2822 
2759 2758 2825 888 179 2705 1062 995 2995 
2813 2811 1093 2812 179 888 2705 866 995 
2813 2995 998 999 3000 2705 129 684 1062 
2997 797 2814 2812 1081 2810 2705 684 129 
662 2814 797 2997 2742 800 798 684 1061 
864 1062 3053 2776 2765 2810 1086 2901 1061 
684 864 660 3053 2765 2776 2770 813 2753 
880 2703 2704 867 3802 2736 3557 966 2803 
2804 2703 880 2704 1148 3802 3557 2736 2830 
3419 2866 2703 880 1155 867 3802 3418 2828 
2803 966 3744 880 2703 1155 1148 3802 2828 
3418 3419 2830 1196 616 2709 877 615 2967 
3545 3075 642 3543 3074 616 877 2709 861 
3075 3545 2967 2859 950 2966 673 2709 616 
615 3542 2967 3073 3072 3543 642 2709 673 
616 657 3542 3073 2967 2965 780 2853 882 
1241 1212 1211 3594 2990 3431 3430 2989 1232 
882 1212 1241 878 3431 2990 3594 976 2920 
3046 1325 229 1980 1330 1420 3104 3425 1421 
1375 3044 229 1325 1980 1969 1420 3425 3104 
3103 3427 2074 1330 1272 1940 1980 1629 3171 
3045 3044 3169 2036 1272 1330 1940 1291 1629 
3045 3171 1627 1378 3373 1272 2014 1940 1921 
3603 2063 3171 3170 2289 2288 2014 1272 1940 
1291 3603 3171 2063 3385 1627 3373 1939 1979 
1363 1289 2415 3357 3552 3571 3599 1752 1979 
1939 1363 2020 2415 3552 3357 2160 2420 3553 
543 2011 1350 2667 2271 3131 3566 2679 3128 
3132 2011 543 1350 1978 2271 3566 3131 2272 
2042 3583 1302 1955 1282 1311 3396 3395 1703 
1700 3399 1704 1921 1980 1325 1969 2287 3425 
3412 2290 2074 3427 1921 1325 1980 1272 3412 
3425 2287 3170 1630 3169 2016 348 1763 1352 
3790 1793 3798 3725 1548 3577 2016 1763 348 
406 3798 1793 3790 2027 1794 1790 589 0 
42 55 592 44 3796 593 58 693 589 
42 0 569 3796 44 592 3799 573 571 
170 1211 1209 1243 3595 1233 3801 1251 3793 
3800 170 1209 1211 164 3801 1233 3595 928 
1223 1238 1282 1955 1945 1929 3395 2346 3391 
3364 2347 2348 1955 1282 1945 1302 3395 3391 
2346 3396 1703 3511 
CELL_TYPES 1759
24
24
24
24
24
24
24
24
24
24
24
24
24
24
24
24
24
24
24
24
24
24
24
24
24
24
24
24
24
24
24
24
24
24
24
24
24
24
24
24
24
24
24
24
24
24
24
24
24
24
24
24
24
24
24
24
24
24
24
24
24
24
24
24
24
24
24
24
24
24
24
24
24
24
24
24
24
24
24
24
24
24
24
24
24
24
24
24
24
24
24
24
24
24
24
24
24
24
24
24
24
24
24
24
24
24
24
24
24
24
24
24
24
24
24
24
24
24
24
24
24
24
24
24
24
24
24
24
24
24
24
24
24
24
24
24
24
24
24
24
24
24
24
24
24
24
24
24
24
24
24
24
24
24
24
24
24
24
24
24
24
24
24
24
24
24
24
24
24
24
24
24
24
24
24
24
24
24
24
24
24
24
24
24
24
24
24
24
24
24
24
24
24
24
24
24
24
24
24
24
24
24
24
24
24
24
24
24
24
24
24
24
24
24
24
24
24
24
24
24
24
24
24
24
24
24
24
24
24
24
24
24
24
24
24
24
24
24
24
24
24
24
24
24
24
24
24
24
24
24
24
24
24
24
24
24
24
24
24
24
24
24
24
24
24
24
24
24
24
24
24
24
24
24
24
24
24
24
24
24
24
24
24
24
24
24
24
24
24
24
24
24
24
24
24
24
24
24
24
24
24
24
24
24
24
24
24
24
24
24
24
24
24
24
24
24
24
24
24
24
24
24
24
24
24
24
24
24
24
24
24
24
24
24
24
24
24
24
24
24
24
24
24
24
24
24
24
24
24
24
24
24
24
24
24
24
24
24
24
24
24
24
24
24
24
24
24
24
24
24
24
24
24
24
24
24
24
24
24
24
24
24
24
24
24
24
24
24
24
24
24
24
24
24
24
24
24
24
24
24
24
24
24
24
24
24
24
24
24
24
24
24
24
24
24
24
24
24
24
24
24
24
24
24
24
24
24
24
24
24
24
24
24
24
24
24
24
24
24
24
24
24
24
24
24
24
24
24
24
24
24
24
24
24
24
24
24
24
24
24
24
24
24
24
24
24
24
24
24
24
24
24
24
24
24
24
24
24
24
24
24
24
24
24
24
24
24
24
24
24
24
24
24
24
24
24
24
24
24
24
24
24
24
24
24
24
24
24
24
24
24
24
24
24
24
24
24
24
24
24
24
24
24
24
24
24
24
24
24
24
24
24
24
24
24
24
24
24
24
24
24
24
24
24
24
24
24
24
24
24
24
24
24
24
24
24
24
24
24
24
24
24
24
24
24
24
24
24
24
24
24
24
24
24
24
24
24
24
24
24
24
24
24
24
24
24
24
24
24
24
24
24
24
24
24
24
24
24
24
24
24
24
24
24
24
24
24
24
24
24
24
24
24
24
24
24
24
24
24
24
24
24
24
24
24
24
24
24
24
24
24
24
24
24
24
24
24
24
24
24
24
24
24
24
24
24
24
24
24
24
24
24
24
24
24
24
24
24
24
24
24
24
24
24
24
24
24
24
24
24
24
24
24
24
24
24
24
24
24
24
24
24
24
24
24
24
24
24
24
24
24
24
24
24
24
24
24
24
24
24
24
24
24
24
24
24
24
24
24
24
24
24
24
24
24
24
24
24
24
24
24
24
24
24
24
24
24
24
24
24
24
24
24
24
24
24
24
24
24
24
24
24
24
24
24
24
24
24
24
24
24
24
24
24
24
24
24
24
24
24
24
24
24
24
24
24
24
24
24
24
24
24
24
24
24
24
24
24
24
24
24
24
24
24
24
24
24
24
24
24
24
24
24
24
24
24
24
24
24
24
24
24
24
24
24
24
24
24
24
24
24
24
24
24
24
24
24
24
24
24
24
24
24
24
24
24
24
24
24
24
24
24
24
24
24
24
24
24
24
24
24
24
24
24
24
24
24
24
24
24
24
24
24
24
24
24
24
24
24
24
24
24
24
24
24
24
24
24
24
24
24
24
24
24
24
24
24
24
24
24
24
24
24
24
24
24
24
24
24
24
24
24
24
24
24
24
24
24
24
24
24
24
24
24
24
24
24
24
24
24
24
24
24
24
24
24
24
24
24
24
24
24
24
24
24
24
24
24
24
24
24
24
24
24
24
24
24
24
24
24
24
24
24
24
24
24
24
24
24
24
24
24
24
24
24
24
24
24
24
24
24
24
24
24
24
24
24
24
24
24
24
24
24
24
24
24
24
24
24
24
24
24
24
24
24
24
24
24
24
24
24
24
24
24
24
24
24
24
24
24
24
24
24
24
24
24
24
24
24
24
24
24
24
24
24
24
24
24
24
24
24
24
24
24
24
24
24
24
24
24
24
24
24
24
24
24
24
24
24
24
24
24
24
24
24
24
24
24
24
24
24
24
24
24
24
24
24
24
24
24
24
24
24
24
24
24
24
24
24
24
24
24
24
24
24
24
24
24
24
24
24
24
24
24
24
24
24
24
24
24
24
24
24
24
24
24
24
24
24
24
24
24
24
24
24
24
24
24
24
24
24
24
24
24
24
24
24
24
24
24
24
24
24
24
24
24
24
24
24
24
24
24
24
24
24
24
24
24
24
24
24
24
24
24
24
24
24
24
24
24
24
24
24
24
24
24
24
24
24
24
24
24
24
24
24
24
24
24
24
24
24
24
24
24
24
24
24
24
24
24
24
24
24
24
24
24
24
24
24
24
24
24
24
24
24
24
24
24
24
24
24
24
24
24
24
24
24
24
24
24
24
24
24
24
24
24
24
24
24
24
24
24
24
24
24
24
24
24
24
24
24
24
24
24
24
24
24
24
24
24
24
24
24
24
24
24
24
24
24
24
24
24
24
24
24
24
24
24
24
24
24
24
24
24
24
24
24
24
24
24
24
24
24
24
24
24
24
24
24
24
24
24
24
24
24
24
24
24
24
24
24
24
24
24
24
24
24
24
24
24
24
24
24
24
24
24
24
24
24
24
24
24
24
24
24
24
24
24
24
24
24
24
24
24
24
24
24
24
24
24
24
24
24
24
24
24
24
24
24
24
24
24
24
24
24
24
24
24
24
24
24
24
24
24
24
24
24
24
24
24
24
24
24
24
24
24
24
24
24
24
24
24
24
24
24
24
24
24
24
24
24
24
24
24
24
24
24
24
24
24
24
24
24
24
24
24
24
24
24
24
24
24
24
24
24
24
24
24
24
24
24
24
24
24
24
24
24
24
24
24
24
24
24
24
24
24
24
24
24
24
24
24
24
24
24
24
24
24
24
24
24
24
24
24
24
24
24
24
24
24
24
24
24
24
24
24
24
24
24
24
24
24
24
24
24
24
24
24
24
24
24
24
24
24
24
24
24
24
24
24
24
24
24
24
24
24
24
24
24
24
24
24
24
24
24
24
24
24
24
24
24
24
24
24
24
24
24
24
24
24
24
24
24
24
24
24
24
24
24
24
24
24
24
24
24
24
24
24
24
24
24
24
24
24
24
24
24
24
24
24
24
24
24
24
24
24
24
24
24
24
24
24
24
24
24
24
24
24
24
24
24
24
24
24
24
24
24
24
24
24
24
24
24
24
24
24
24
24
24
24
24
24
24
24
24
24
24
24
24
24
24
24
24
24
24
24
24
24
24
24
24
24
24
24
24
24
24
24
24
24
24
24
24
24
24
24
24
24
24
24
24
24
24
24
24
24
24
24
24
24
24
24
24
24
24
24
24
24
24
24
24
24
24
24
24
24
24
24
24
24
24
24
24
24
24
24
24
24
24
24
24
24
24
24
24
24
24
24
24
24
24
24
24
24
24
24
24
24
24
24
24
24
24
24
24
24
24
24
24
24
24
24
24
24
24
24
24
24
24
24
24
24
24
24
24
24
24
24
24
24
24
24
24
24
24
24
24
24
24
24
24
24
24
24
24
24
24
24
24
24
24
24
24
24
24
24
24
24
24
24
24
24
24
24
24
24
24
24
24
24
24
24
24
24
24
24
24
24
24

POINT_DATA 3803
FIELD FieldData 10
Displacement 3 3803 double
0 0 0 0 0 0 -5.3713007086e-10 -9.9144415307e-11 -6.421259645e-11 
-5.4021626908e-10 -1.0152464361e-10 6.1168498044e-11 0 0 0 0 0 0 
-9.6440319574e-10 -1.9388209534e-09 -4.5654699283e-11 -9.6501090332e-10 -1.936600652e-09 -2.1375916441e-11 -9.9583188757e-10 -1.9362873849e-09 1.0755646585e-10 
-1.0097202302e-09 -1.9393618002e-09 1.3318295708e-10 6.6515307171e-10 -3.8188008253e-09 3.2493923488e-10 4.0678760271e-09 -2.9681257196e-09 -1.7044508361e-10 
4.4015957011e-09 1.1596990421e-09 -7.8121187815e-11 -1.3078211878e-09 7.9029046912e-09 9.2488728657e-11 0 0 0 
3.2400884324e-10 -3.4001718017e-09 1.6464024659e-10 4.2165866193e-09 -2.894791725e-09 -2.8795805072e-10 4.4472795263e-09 1.1786375162e-09 5.2831704617e-11 
-1.2730744898e-09 7.9184566917e-09 9.257943944e-11 0 0 0 2.8736606079e-10 -3.5373298732e-09 2.9602463319e-10 
-8.1272506373e-07 -5.8082030071e-07 -3.0619679453e-07 -8.4076187661e-07 -6.0002913851e-07 2.9890241985e-07 -6.8641259407e-11 -3.1854850583e-09 2.3134601236e-10 
4.0856398234e-09 -2.9575844224e-09 -1.8637108866e-10 4.1884192332e-09 -2.9053083784e-09 -2.7098126326e-10 8.3439985306e-07 -5.9230566646e-07 3.131703592e-07 
2.5412789649e-06 -4.3148852971e-05 4.4886031803e-07 2.5418351358e-06 -5.4162122613e-05 5.6274660571e-07 -2.492935896e-06 -5.4162096562e-05 5.8612256808e-07 
-2.4924068441e-06 -4.3148839777e-05 4.7216150005e-07 -2.5096586611e-06 -4.3141096815e-05 4.7223497227e-07 8.4492459557e-07 -6.0588128926e-07 -2.9877179329e-07 
2.5240279307e-06 -4.3141109799e-05 4.4878923859e-07 2.5245837202e-06 -5.4154380335e-05 5.6275228542e-07 -2.5101872626e-06 -5.4154354322e-05 5.8612205431e-07 
0 0 0 0 0 0 0 0 0 
-5.396645926e-10 -1.1412471103e-10 -1.9286823859e-12 -5.3747274125e-10 -1.0986351301e-10 -3.3231820049e-11 -5.3967292282e-10 -1.1129895351e-10 2.9666470938e-11 
-1.2171704952e-10 1.1912476663e-11 -3.3850663121e-11 -2.995958902e-10 -7.5432351839e-12 -5.2291019151e-11 -5.3973823427e-11 7.2442397095e-12 -1.8203238735e-11 
-2.0328602648e-10 7.6898345946e-12 -4.3875867191e-11 -4.1121946668e-10 -3.9856668718e-11 -5.9125011675e-11 -1.2161747792e-10 1.2426347555e-11 3.278913754e-11 
-3.0034516745e-10 -7.9640801985e-12 5.0770675071e-11 -5.3994938179e-11 7.6964781492e-12 1.8193454433e-11 -2.0337253773e-10 7.9372627007e-12 4.3344312539e-11 
-4.1298648463e-10 -4.1283869396e-11 5.6500615022e-11 0 0 0 0 0 0 
0 0 0 0 0 0 0 0 0 
0 0 0 0 0 0 0 0 0 
0 0 0 0 0 0 0 0 0 
0 0 0 0 0 0 0 0 0 
0 0 0 0 0 0 0 0 0 
-9.6307484281e-10 -1.936292086e-09 -3.3944725257e-11 -9.8777725159e-10 -1.9468357405e-09 4.2586269181e-11 -9.7558238083e-10 -1.9416020702e-09 9.5603498685e-12 
-9.9134983112e-10 -1.9413924012e-09 7.5706346264e-11 -1.0005309662e-09 -1.9360099621e-09 1.2124141062e-10 -8.2470067171e-10 -3.6811054262e-10 -6.785656732e-11 
-1.0185328169e-09 -8.4162937252e-10 -5.8383758305e-11 -1.034342868e-09 -1.4113466507e-09 -3.9818362672e-11 -6.8245353415e-10 -2.0617212898e-10 -6.744888718e-11 
-9.4046714041e-10 -5.8336071113e-10 -6.5398243124e-11 -1.0491200879e-09 -1.1273653264e-09 -4.7745761587e-11 -1.0017835455e-09 -1.6799124322e-09 -3.7530020938e-11 
-8.3247788403e-10 -3.7017507661e-10 6.7605329504e-11 -1.0336067266e-09 -8.4562701341e-10 7.1813111591e-11 -1.0612146956e-09 -1.4138842668e-09 8.2602393121e-11 
-6.8689015154e-10 -2.0909269723e-10 6.4972453692e-11 -9.5136013643e-10 -5.8700674341e-10 7.0328298296e-11 -1.0694760881e-09 -1.130797239e-09 7.3800066815e-11 
-1.0365944749e-09 -1.6814411042e-09 1.0067953585e-10 -8.8024810112e-10 -2.4436074627e-09 -4.4645048239e-11 -7.1230444359e-10 -3.0225471692e-09 5.3673464343e-12 
-6.0623436629e-10 -3.5032903105e-09 1.7475387326e-10 -9.2800138704e-10 -2.1803408782e-09 -5.2135031163e-11 -8.016116829e-10 -2.7230610083e-09 -3.2528201595e-11 
-6.6538139389e-10 -3.2878598612e-09 6.5107469216e-11 -1.5678728139e-10 -3.681172549e-09 3.0511915072e-10 3.1861653628e-09 -4.06769797e-09 -3.3664995434e-10 
3.6949686409e-09 -3.9234337871e-09 -2.3048039516e-10 3.7387981253e-09 -3.547638878e-09 -2.1992336705e-10 1.9182711768e-09 -3.9661933985e-09 1.4022611834e-11 
3.6679438453e-09 -4.0182893879e-09 -3.1262385798e-10 3.6069020547e-09 -3.7874522916e-09 -2.299794377e-10 3.9292948251e-09 -3.2617020924e-09 -1.8678324273e-10 
4.2766323192e-09 -2.358647282e-09 -1.4496083347e-10 4.437180175e-09 -1.7102216469e-09 -1.18636919e-10 4.5466751405e-09 -9.7832097717e-10 -1.0488041e-10 
4.574342413e-09 -6.8652356329e-11 -9.6270693196e-11 4.1785261281e-09 -2.6659330746e-09 -1.5869230322e-10 4.3622810063e-09 -2.0429338867e-09 -1.3140344225e-10 
4.4980491296e-09 -1.3619245942e-09 -1.1097546234e-10 4.574041852e-09 -5.525049936e-10 -1.0039485102e-10 4.5286625803e-09 4.9761457187e-10 -9.1425014007e-11 
3.7794959334e-09 2.7182633293e-09 -2.4882472203e-11 2.7573371829e-09 4.278154179e-09 2.5627279075e-11 1.5293718135e-09 5.6406091073e-09 5.5020041023e-11 
1.7314181698e-10 6.8496198137e-09 7.4248177984e-11 4.150090701e-09 1.9180988783e-09 -5.4874663813e-11 3.3085741233e-09 3.5155520112e-09 2.6568089116e-12 
2.1588793618e-09 4.979860378e-09 4.3037965685e-11 8.67453481e-10 6.2637908836e-09 6.488226427e-11 -5.5278513216e-10 7.396656889e-09 8.347180433e-11 
-8.3371858695e-10 6.0006009911e-09 6.9647781008e-11 -3.5906046407e-10 4.0997284511e-09 4.5468759163e-11 9.2241435728e-11 2.2411014702e-09 -1.4204161131e-11 
-1.0707114737e-09 6.9517970512e-09 8.1035536837e-11 -5.9666634443e-10 5.0488883073e-09 5.8138394485e-11 -1.2554783239e-10 3.1609205218e-09 2.4574417163e-11 
1.9806841295e-10 1.3246805099e-09 -7.8220505167e-11 -1.2578225038e-10 -7.6889134645e-10 -6.5304422432e-11 1.929810514e-10 -8.8346514342e-10 1.6908246735e-11 
1.0413913037e-09 -8.1396110692e-10 -4.140038531e-11 1.7523007278e-09 -7.111695422e-10 -3.5976470738e-11 1.7597635691e-09 -4.800684196e-10 1.4057186156e-10 
-8.8819326302e-11 -5.4516120822e-10 -1.0164645682e-10 -3.6539647155e-11 -8.679919147e-10 -1.350808059e-11 5.8043165133e-10 -8.5468723351e-10 -2.6749438067e-12 
1.4546352527e-09 -7.6686060369e-10 -5.8217167868e-11 1.8530698148e-09 -6.1485082559e-10 3.8614796979e-11 1.3558425005e-09 -1.9824271935e-10 4.6248977635e-10 
-9.5675699081e-10 -2.4456472922e-09 1.8503861772e-10 -8.7164357125e-10 -3.0080455401e-09 2.340524925e-10 -8.8084568939e-10 -3.3013525553e-09 3.2093262802e-10 
-9.8465304136e-10 -2.1796504828e-09 1.6475354249e-10 -9.0606105349e-10 -2.7283899844e-09 1.9940808446e-10 -8.8589669959e-10 -3.2057885768e-09 2.9201730524e-10 
-4.3332479471e-10 -3.3562536219e-09 2.5443288793e-10 3.217898229e-09 -3.660069328e-09 -1.8380318887e-10 4.1465330881e-09 -3.6911459706e-09 -3.9807995103e-10 
4.0305485879e-09 -3.3951575495e-09 -3.780065527e-10 1.7871414617e-09 -3.5138552614e-09 3.5140067012e-11 3.8883442737e-09 -3.7650037215e-09 -2.5808198333e-10 
3.9928987857e-09 -3.5882371394e-09 -4.1095137358e-10 4.1268134719e-09 -3.1591631994e-09 -3.3680997989e-10 4.3802012126e-09 -2.310753493e-09 -1.9764750133e-10 
4.5158021508e-09 -1.6750661833e-09 -1.2741818457e-10 4.6123159777e-09 -9.4838705931e-10 -5.5250231973e-11 4.6281299798e-09 -4.5402940674e-11 1.014779196e-11 
4.3004935495e-09 -2.6069478569e-09 -2.3920060007e-10 4.451803398e-09 -2.0011593404e-09 -1.6127281002e-10 4.5704800018e-09 -1.3288647569e-09 -9.1423570909e-11 
4.6322058118e-09 -5.264887662e-10 -2.2599477362e-11 4.5771267078e-09 5.1876910981e-10 3.6893661636e-11 3.8187578823e-09 2.7347433814e-09 4.8862792295e-11 
2.7938188444e-09 4.2936478334e-09 4.1577371403e-11 1.5645399161e-09 5.6560863599e-09 5.3073392427e-11 2.08155303e-10 6.8650643402e-09 7.3436419164e-11 
4.1920938343e-09 1.9356843401e-09 5.5341310959e-11 3.3462166953e-09 3.5311852662e-09 4.3418529904e-11 2.1944946296e-09 4.9953721001e-09 4.4745817512e-11 
9.0249479767e-10 6.2791954486e-09 6.3211976685e-11 -5.1793895428e-10 7.4121565312e-09 8.318930286e-11 -7.9893566184e-10 6.0159551913e-09 6.9038761435e-11 
-3.2420015672e-10 4.1148360592e-09 4.6558174012e-11 1.2562095626e-10 2.2582173325e-09 6.0396962188e-11 -1.0359731467e-09 6.9672489696e-09 8.0880800359e-11 
-5.6186110194e-10 5.0641722096e-09 5.7327554127e-11 -9.0806345307e-11 3.1764216662e-09 4.3772076595e-11 2.1826621941e-10 1.332016545e-09 9.7605032481e-11 
-1.6408844399e-10 -7.552061838e-10 5.9220572797e-11 1.4549096163e-10 -8.5265338441e-10 -3.244517555e-11 1.0319714749e-09 -7.652049245e-10 2.0557894214e-11 
1.787425734e-09 -6.6038372731e-10 1.6533615633e-11 1.8051292335e-09 -4.4191437181e-10 -1.5200977972e-10 -1.116900473e-10 -5.3759479094e-10 9.9595049159e-11 
-8.3389631123e-11 -8.4717826033e-10 3.9648435948e-12 5.4767747981e-10 -8.1271896363e-10 -1.5289811289e-11 1.4700208994e-09 -7.1327592686e-10 3.6350574505e-11 
1.8958213487e-09 -5.7082573927e-10 -5.5585004424e-11 1.392632008e-09 -1.7187817052e-10 -4.7273119061e-10 0 0 0 
0 0 0 0 0 0 5.1003558598e-10 -3.7123050451e-09 3.1455806388e-10 
-9.1750453105e-10 -2.4727318259e-09 -1.5896114758e-11 -7.6301651299e-10 -3.1214540904e-09 5.2853670619e-11 -1.0719662515e-09 -3.6209409541e-09 2.075745887e-10 
-9.4489667897e-10 -2.1950618791e-09 -2.4326983814e-11 -8.3618663502e-10 -2.7811708715e-09 5.1429953587e-12 -9.0746316653e-10 -3.4214811677e-09 9.9904043215e-11 
-7.4088212807e-10 -3.6413642028e-09 2.5287049356e-10 -7.8416919125e-07 -6.4821869642e-07 3.3020635222e-09 -7.8690935711e-07 -6.2203369365e-07 -1.6227685249e-07 
-8.07718342e-07 -6.3166966313e-07 1.5828235453e-07 -1.6195288899e-07 -1.2384086269e-07 -1.0452333312e-07 -3.1248998462e-09 -5.6927923124e-09 -2.9783910883e-09 
-7.3989451825e-10 -3.5440051335e-09 1.1950781272e-10 -9.8935530912e-10 -2.6134189637e-09 -1.4980284786e-11 -4.1472128509e-07 -2.8974383075e-07 -2.0560788146e-07 
-4.6154183751e-08 -3.7126874344e-08 -3.1321709561e-08 -8.6757698827e-10 -3.5745475415e-09 -1.9623623107e-10 -9.6645214207e-10 -3.0901082186e-09 2.3928968857e-11 
-9.5830251151e-10 -2.2338255328e-09 -2.4526485925e-11 -1.2909486803e-07 -1.021004476e-07 8.7249081056e-08 -7.0411526381e-09 -6.4392446233e-09 6.3815589119e-09 
-1.0870872043e-09 -3.678236767e-09 2.115291986e-10 -1.0515212642e-09 -2.6194302122e-09 1.6267563428e-10 -4.0290805102e-07 -3.1776199552e-07 1.9262788993e-07 
-4.5659442231e-08 -3.4249615563e-08 3.3830817123e-08 -1.7176347226e-09 -3.8098199232e-09 9.8102645519e-10 -1.1088700773e-09 -3.1313817845e-09 1.6970594734e-10 
-1.0003931578e-09 -2.2345813239e-09 1.3834206983e-10 -9.7666776092e-10 -2.476106889e-09 1.5253558849e-10 -9.1562655046e-10 -3.0925385512e-09 1.9041702727e-10 
-1.2454114557e-09 -3.4049518654e-09 3.1525199914e-10 -9.8617589283e-10 -2.1954289916e-09 1.347290211e-10 -9.3384224689e-10 -2.7789560733e-09 1.6069051481e-10 
-1.0606437493e-09 -3.323724763e-09 2.6195632803e-10 -8.926695126e-10 -3.340369446e-09 3.1271680693e-10 1.8906883054e-10 -3.3428160324e-09 1.8788239676e-10 
4.0762309214e-09 -2.9623843624e-09 -1.7806076891e-10 3.7455236276e-09 -3.8646146859e-09 -3.1245888981e-10 3.9450644052e-09 -4.0774717002e-09 -2.6339857997e-10 
3.7541932999e-09 -3.573685407e-09 -2.3669458464e-10 2.0616124774e-09 -3.6075869474e-09 3.1237343659e-11 4.1870308586e-09 -4.1358034053e-09 -3.0689882737e-10 
3.6222383362e-09 -3.8716177657e-09 -2.6109535891e-10 3.9655672929e-09 -3.2603270851e-09 -2.0268038751e-10 4.1430556354e-09 -2.9291437868e-09 -2.2565852366e-10 
4.1138579483e-09 -2.9442790017e-09 -2.0550606567e-10 4.1667105842e-09 -2.9177388105e-09 -2.476682047e-10 4.2007770193e-09 -2.8986625579e-09 -2.7976694923e-10 
4.4001017574e-09 1.2051349114e-09 -1.2399663205e-11 4.3951628129e-09 1.1961233452e-09 -4.3478492178e-11 4.4182058877e-09 1.2053582703e-09 1.8723150452e-11 
-1.2905315524e-09 7.9105299109e-09 9.2542683917e-11 -1.2991993288e-09 7.906671145e-09 9.2527810077e-11 -1.2818298378e-09 7.9144564587e-09 9.2556113906e-11 
3.6388166887e-09 -3.5908196083e-09 -2.0523407096e-10 4.4666733969e-09 -3.8779355685e-09 -3.7867168609e-10 4.0017917893e-09 -3.4640149839e-09 -3.5518657033e-10 
1.897949473e-09 -3.2959743276e-09 2.101961974e-11 4.3973547274e-09 -3.8543055574e-09 -3.0746586493e-10 4.038185356e-09 -3.7252329079e-09 -3.6872650085e-10 
4.1098589505e-09 -3.1870917524e-09 -3.1745603075e-10 3.7954139639e-09 -3.7953147268e-09 -3.4796760558e-10 4.4094662249e-09 -2.8990442781e-09 1.3031562935e-09 
1.4519558522e-07 -1.0829000983e-07 9.0446314095e-08 3.9758491232e-09 -3.3252318557e-09 -2.2028105201e-10 3.5332448551e-09 -4.1597334351e-09 -6.3832459426e-10 
3.918845983e-08 -3.3304073588e-08 2.64271777e-08 4.1028797913e-07 -2.8199427654e-07 2.0248138367e-07 1.789686174e-06 -1.405800132e-06 2.0918085941e-07 
2.33481045e-06 -2.5473397917e-06 9.6669940074e-08 2.4727210517e-06 -4.0161924117e-06 5.6051712457e-08 2.4997034424e-06 -5.5505692955e-06 6.216668761e-08 
2.5085048439e-06 -7.1003138153e-06 7.6566190006e-08 2.5142747895e-06 -8.6545807715e-06 9.1971632454e-08 2.5189256957e-06 -1.0212283176e-05 1.0799788725e-07 
2.5219415484e-06 -1.1771913841e-05 1.2417545076e-07 2.5245120179e-06 -1.3333859693e-05 1.4004677857e-07 2.5263022983e-06 -1.4897127119e-05 1.5601328495e-07 
2.5276601575e-06 -1.6461262179e-05 1.7235245238e-07 2.5289895732e-06 -1.8026269566e-05 1.8862986301e-07 2.5302569978e-06 -1.9592099885e-05 2.0489618943e-07 
2.531458556e-06 -2.1158701797e-05 2.2116219491e-07 2.5325936422e-06 -2.2726035571e-05 2.3742585997e-07 2.5336620707e-06 -2.4294056758e-05 2.5369109856e-07 
2.5346637483e-06 -2.5862726178e-05 2.6995454084e-07 2.5355986556e-06 -2.7431999498e-05 2.8621971993e-07 2.5364667857e-06 -2.9001837561e-05 3.024831453e-07 
2.5372681371e-06 -3.0572196046e-05 3.1874831984e-07 2.5380027073e-06 -3.21430358e-05 3.3501174305e-07 2.5386704991e-06 -3.3714312491e-05 3.5127691287e-07 
2.5392715079e-06 -3.5285986997e-05 3.6754033186e-07 2.5398057174e-06 -3.6858014944e-05 3.8380549787e-07 2.5402732019e-06 -3.843035711e-05 4.0006893259e-07 
2.5406741677e-06 -4.0002969401e-05 4.1633407084e-07 2.5410092776e-06 -4.1575813296e-05 4.3259790341e-07 1.3267981615e-06 -9.739236637e-07 2.7358997554e-07 
2.1297223327e-06 -1.922722604e-06 1.4499455489e-07 2.420978272e-06 -3.2668206937e-06 6.9420125414e-08 2.4928193751e-06 -4.7784577664e-06 5.6670485809e-08 
2.5044915763e-06 -6.3247352512e-06 6.9212383394e-08 2.5116289744e-06 -7.8770000866e-06 8.417137951e-08 2.5166557817e-06 -9.4331524753e-06 1.0000201786e-07 
2.5206620432e-06 -1.099174447e-05 1.1612534826e-07 2.5232533501e-06 -1.2552768341e-05 1.3225456924e-07 2.5256559373e-06 -1.4115429225e-05 1.4806097751e-07 
2.5269873243e-06 -1.5679092076e-05 1.641936063e-07 2.5283316681e-06 -1.724365955e-05 1.8049358e-07 2.5296305438e-06 -1.8809085419e-05 1.9676348474e-07 
2.5308661481e-06 -2.0375306889e-05 2.1302932515e-07 2.5320335571e-06 -2.1942279986e-05 2.292940627e-07 2.5331362809e-06 -2.3509962686e-05 2.4555848976e-07 
2.5341703891e-06 -2.5078313211e-05 2.6182282244e-07 2.5351396323e-06 -2.6647289798e-05 2.7808713117e-07 2.5360402019e-06 -2.8216850707e-05 2.9435143282e-07 
2.5368758923e-06 -2.9786954198e-05 3.1061573269e-07 2.5376429038e-06 -3.1357558534e-05 3.2688003136e-07 2.5383450312e-06 -3.2928621977e-05 3.4314433015e-07 
2.5389784949e-06 -3.4500102791e-05 3.5940862214e-07 2.5395470454e-06 -3.6071959236e-05 3.7567291464e-07 2.5400469309e-06 -3.7644149524e-05 3.9193720713e-07 
2.5404820489e-06 -3.921663191e-05 4.0820152628e-07 2.5408491124e-06 -4.0789365085e-05 4.2446580058e-07 2.5411527726e-06 -4.236230851e-05 4.407301838e-07 
2.5414800367e-06 -4.4722031823e-05 4.6512416243e-07 2.5416251483e-06 -4.6295298608e-05 4.8139082668e-07 2.5417244424e-06 -4.7868627628e-05 4.9765869639e-07 
2.5417844337e-06 -4.9441991506e-05 5.1392861058e-07 2.5418170918e-06 -5.1015371251e-05 5.3019957582e-07 2.5418301935e-06 -5.2588750512e-05 5.464723594e-07 
2.5413871228e-06 -4.393543091e-05 4.5699130987e-07 2.5415589548e-06 -4.5508655888e-05 4.7325713393e-07 2.5416797112e-06 -4.7081956852e-05 4.8952453183e-07 
2.5417584762e-06 -4.8655306401e-05 5.0579338862e-07 2.5418035186e-06 -5.0228680329e-05 5.2206387663e-07 2.541825216e-06 -5.1802061368e-05 5.3833568127e-07 
2.5418328447e-06 -5.3375437307e-05 5.5460938813e-07 1.2831402427e-06 -5.4162109397e-05 5.6859028572e-07 2.4449649326e-08 -5.416209979e-05 5.7443460456e-07 
-1.2342409116e-06 -5.4162096293e-05 5.8027892883e-07 1.9124872538e-06 -5.4162115894e-05 5.656683988e-07 6.5379457089e-07 -5.4162103877e-05 5.7151236791e-07 
-6.0489530273e-07 -5.4162097336e-05 5.7735684814e-07 -1.863587949e-06 -5.4162096406e-05 5.8320078956e-07 -2.4926077022e-06 -4.4722006606e-05 4.8844580571e-07 
-2.4927496823e-06 -4.629527225e-05 5.0472940165e-07 -2.4928446883e-06 -4.7868601384e-05 5.2101141652e-07 -2.4928999137e-06 -4.9441965299e-05 5.3729127385e-07 
-2.4929276308e-06 -5.1015345102e-05 5.5357003238e-07 -2.492935764e-06 -5.2588724328e-05 5.6984699437e-07 -2.4925144455e-06 -4.3935408351e-05 4.8030387598e-07 
-2.492685185e-06 -4.5508629768e-05 4.9658808492e-07 -2.4928021727e-06 -4.7081930523e-05 5.1287065783e-07 -2.4928763318e-06 -4.865528019e-05 5.2915160305e-07 
-2.4929165221e-06 -5.0228654251e-05 5.4543085998e-07 -2.4929332723e-06 -5.1802035336e-05 5.6170880329e-07 -2.492936019e-06 -5.3375411206e-05 5.7798484067e-07 
-1.7671901269e-06 -1.37674867e-06 -1.9544868956e-07 -2.290435944e-06 -2.5612609373e-06 -9.6213413526e-09 -2.4257105778e-06 -4.0147847192e-06 5.2529440831e-08 
-2.4507551143e-06 -5.5507570339e-06 7.792862328e-08 -2.4596192375e-06 -7.1003630107e-06 9.5888789284e-08 -2.4654399701e-06 -8.6545890839e-06 1.1301406217e-07 
-2.4700644299e-06 -1.0212282461e-05 1.2949888206e-07 -2.4730841993e-06 -1.1771911573e-05 1.4585453297e-07 -2.4756455063e-06 -1.3333858522e-05 1.625294137e-07 
-2.4774329248e-06 -1.4897127438e-05 1.7911285617e-07 -2.4787948953e-06 -1.6461262042e-05 1.953234833e-07 -2.4801244575e-06 -1.802626955e-05 2.1159587137e-07 
-2.4813918932e-06 -1.9592099899e-05 2.2787935491e-07 -2.4825934428e-06 -2.1158701797e-05 2.4416317025e-07 -2.483728526e-06 -2.272603558e-05 2.6044933395e-07 
-2.4847969539e-06 -2.4294056754e-05 2.7673392723e-07 -2.4857986313e-06 -2.5862726185e-05 2.9302031835e-07 -2.4867335386e-06 -2.7431999492e-05 3.0930497289e-07 
-2.4876016685e-06 -2.9001837567e-05 3.2559138166e-07 -2.48840302e-06 -3.0572196039e-05 3.41876041e-07 -2.4891375942e-06 -3.2143035802e-05 3.5816245071e-07 
-2.4898053876e-06 -3.3714312502e-05 3.7444710785e-07 -2.490406402e-06 -3.5285987001e-05 3.9073352199e-07 -2.4909406376e-06 -3.6858014991e-05 4.0701820331e-07 
-2.4914080485e-06 -3.8430357358e-05 4.2330466228e-07 -2.491808496e-06 -4.0002969755e-05 4.3958933219e-07 -2.4921413553e-06 -4.1575812553e-05 4.5587592444e-07 
-1.3012128382e-06 -9.6291250196e-07 -2.5982981669e-07 -2.0907831172e-06 -1.9034849342e-06 -8.7936150868e-08 -2.3776124254e-06 -3.2679008616e-06 2.7941221102e-08 
-2.4444595154e-06 -4.7782648077e-06 6.732124063e-08 -2.4555492006e-06 -6.3248563014e-06 8.7007499447e-08 -2.4627902439e-06 -7.8770196142e-06 1.0455328422e-07 
-2.4678075318e-06 -9.4331540404e-06 1.2124010191e-07 -2.4717999238e-06 -1.099174509e-05 1.376352449e-07 -2.4743914853e-06 -1.2552766677e-05 1.5405122014e-07 
-2.4767959738e-06 -1.4115427884e-05 1.7079198606e-07 -2.4781209594e-06 -1.5679091917e-05 1.8720743369e-07 -2.4794665193e-06 -1.7243659506e-05 2.0345725251e-07 
-2.4807654479e-06 -1.8809085422e-05 2.1973715404e-07 -2.482001034e-06 -2.0375306897e-05 2.3602112834e-07 -2.4831684512e-06 -2.1942279991e-05 2.5230621631e-07 
-2.4842711603e-06 -2.3509962688e-05 2.6859161984e-07 -2.4853052813e-06 -2.5078313212e-05 2.8487711998e-07 -2.4862745114e-06 -2.6647289798e-05 3.0116264479e-07 
-2.4871750939e-06 -2.8216850707e-05 3.1744817705e-07 -2.4880107712e-06 -2.9786954197e-05 3.337337113e-07 -2.4887777974e-06 -3.1357558533e-05 3.5001924565e-07 
-2.4894799208e-06 -3.2928621977e-05 3.6630478112e-07 -2.4901133759e-06 -3.4500102795e-05 3.8259031325e-07 -2.4906819501e-06 -3.6071959258e-05 3.9887585793e-07 
-2.4911818389e-06 -3.7644149654e-05 4.1516143045e-07 -2.49161675e-06 -3.9216632263e-05 4.3144702032e-07 -2.4919826271e-06 -4.0789365161e-05 4.4773278708e-07 
-2.4922823111e-06 -4.2362305341e-05 4.6401861809e-07 -2.5010349214e-06 -4.3144974228e-05 4.7219825715e-07 -2.4967214522e-06 -4.3146908508e-05 4.7217988492e-07 
-2.5053474578e-06 -4.3143036909e-05 4.7221662216e-07 -1.7839160776e-06 -1.3737500994e-06 2.6023382074e-07 -2.3099426653e-06 -2.5472511242e-06 1.05428516e-07 
-2.4435948501e-06 -4.0051267586e-06 7.6457334611e-08 -2.4690460278e-06 -5.5438679569e-06 8.3403829684e-08 -2.4772494845e-06 -7.0925993557e-06 9.9691286208e-08 
-2.4829595705e-06 -8.6468664039e-06 1.1570994171e-07 -2.486823101e-06 -1.0204369273e-05 1.3156606e-07 -2.4904256978e-06 -1.1764455821e-05 1.4741457359e-07 
-2.4932994776e-06 -1.3326055187e-05 1.6353992093e-07 -2.4946203036e-06 -1.4889362023e-05 1.795220906e-07 -2.4960289131e-06 -1.6453511033e-05 1.9575517039e-07 
-2.4973703532e-06 -1.8018525163e-05 2.1201050462e-07 -2.4986418132e-06 -1.9584356207e-05 2.2827231173e-07 -2.4998444355e-06 -2.1150959997e-05 2.4453478844e-07 
-2.5009798216e-06 -2.2718292619e-05 2.607997259e-07 -2.5020483337e-06 -2.4286315151e-05 2.7706308192e-07 -2.5030500344e-06 -2.585498328e-05 2.9332823789e-07 
-2.5039849481e-06 -2.7424257906e-05 3.0959165641e-07 -2.5048530798e-06 -2.8994094666e-05 3.2585682941e-07 -2.5056544318e-06 -3.0564454453e-05 3.4212025326e-07 
-2.5063890058e-06 -3.2135292902e-05 3.5838542805e-07 -2.5070568012e-06 -3.3706570909e-05 3.7464885196e-07 -2.5076578207e-06 -3.5278244103e-05 3.909140283e-07 
-2.5081920596e-06 -3.6850273377e-05 4.0717746754e-07 -2.5086594886e-06 -3.8422614404e-05 4.2344267272e-07 -2.5090599677e-06 -3.9995228079e-05 4.3970618176e-07 
-2.5093925388e-06 -4.1568070032e-05 4.5597067441e-07 -1.3354475632e-06 -9.4635938918e-07 2.9637078822e-07 -2.1095202341e-06 -1.8982175231e-06 1.6420910767e-07 
-2.3989423652e-06 -3.2580089327e-06 8.7205539296e-08 -2.4593292561e-06 -4.7723821046e-06 7.805038329e-08 -2.4737131054e-06 -6.3173631947e-06 9.1410195153e-08 
-2.4801952874e-06 -7.8691759564e-06 1.0760137508e-07 -2.4851160258e-06 -9.4250739606e-06 1.2370776926e-07 -2.4886843083e-06 -1.0984151436e-05 1.3939631698e-07 
-2.4918446088e-06 -1.2545068208e-05 1.5543600315e-07 -2.4939327589e-06 -1.4107565359e-05 1.7148531289e-07 -2.4953322629e-06 -1.5671324781e-05 1.876246056e-07 
-2.4967075611e-06 -1.7235912335e-05 2.0388252478e-07 -2.4980150197e-06 -1.8801341654e-05 2.2014085746e-07 -2.4992507016e-06 -2.0367564237e-05 2.3640340317e-07 
-2.5004205765e-06 -2.1934537634e-05 2.5266721854e-07 -2.5015215745e-06 -2.3502220413e-05 2.6893139398e-07 -2.5025576127e-06 -2.507057096e-05 2.8519565694e-07 
-2.5035249822e-06 -2.6639547553e-05 3.0145994637e-07 -2.5044274411e-06 -2.8209108463e-05 3.1772424266e-07 -2.5052612463e-06 -2.9779211954e-05 3.3398854121e-07 
-2.5060301455e-06 -3.1349816289e-05 3.5025284076e-07 -2.5067303941e-06 -3.2920879734e-05 3.6651714067e-07 -2.5073657379e-06 -3.4492360549e-05 3.8278143713e-07 
-2.5079324221e-06 -3.6064217001e-05 3.9904574565e-07 -2.5084342093e-06 -3.7636407373e-05 4.1531007533e-07 -2.5088672908e-06 -3.92088899e-05 4.315744543e-07 
-2.5092346541e-06 -4.0781623015e-05 4.4783837478e-07 -2.5095335368e-06 -4.2354563008e-05 4.641028565e-07 4.1076917067e-09 -3.7218622286e-09 -3.4774065662e-10 
6.2900201533e-09 -3.222902261e-09 -3.5436075246e-09 1.2096772153e-07 -8.6096621541e-08 -8.1365454885e-08 4.1284865185e-09 -3.2520620464e-09 -3.2341050015e-10 
4.3985201251e-09 -4.0509645825e-09 -4.559307562e-10 4.0310485126e-08 -2.9716467508e-08 -3.0627354396e-08 3.90564768e-07 -3.0222676733e-07 -1.8492298597e-07 
1.7716339278e-06 -1.3706134305e-06 -2.2258884789e-07 2.3007111079e-06 -2.5614736477e-06 -3.9839622036e-08 2.4569885737e-06 -4.0067919605e-06 3.0722692955e-08 
2.4832748891e-06 -5.5439213427e-06 5.6415643362e-08 2.4916430378e-06 -7.0926414506e-06 7.2819433515e-08 2.4973268207e-06 -8.6468862809e-06 8.926749518e-08 
2.5011954299e-06 -1.0204371005e-05 1.0592876292e-07 2.5047892937e-06 -1.1764455351e-05 1.2261866153e-07 2.5076616079e-06 -1.3326055225e-05 1.3903849353e-07 
2.5089832131e-06 -1.4889361576e-05 1.556034941e-07 2.5103912724e-06 -1.6453511275e-05 1.7192083866e-07 2.5117326311e-06 -1.8018525251e-05 1.8821524094e-07 
2.5130040979e-06 -1.9584356241e-05 2.0450323077e-07 2.5142067251e-06 -2.1150959999e-05 2.2079057529e-07 2.5153421141e-06 -2.2718292627e-05 2.3707546755e-07 
2.5164106267e-06 -2.4286315146e-05 2.5336194381e-07 2.5174123274e-06 -2.5854983286e-05 2.6964662129e-07 2.5183472411e-06 -2.74242579e-05 2.8593303637e-07 
2.5192153731e-06 -2.8994094672e-05 3.0221769752e-07 2.5200167252e-06 -3.056445445e-05 3.1850410823e-07 2.5207512964e-06 -3.2135292912e-05 3.3478876812e-07 
2.5214190886e-06 -3.3706570899e-05 3.5107517627e-07 2.5220201003e-06 -3.5278244098e-05 3.6735983094e-07 2.5225543282e-06 -3.6850273347e-05 3.8364622863e-07 
2.523021807e-06 -3.8422614192e-05 3.9993085815e-07 2.5234229469e-06 -3.9995227697e-05 4.1621703311e-07 2.5237575543e-06 -4.156806997e-05 4.3250143036e-07 
1.3371527977e-06 -9.5563650096e-07 -2.8301747352e-07 2.0846840889e-06 -1.9153441661e-06 -1.2261839466e-07 2.4127137092e-06 -3.2603945956e-06 5.5661470325e-09 
2.4733220753e-06 -4.7727802888e-06 4.5456444161e-08 2.4881236194e-06 -6.3173756536e-06 6.4813651998e-08 2.4945670205e-06 -7.8692171227e-06 8.1135617319e-08 
2.4994886146e-06 -9.4250823918e-06 9.7521802049e-08 2.5030527749e-06 -1.0984150476e-05 1.1436902822e-07 2.5062067229e-06 -1.2545068512e-05 1.3086812572e-07 
2.5082957831e-06 -1.4107564925e-05 1.4736596709e-07 2.509694731e-06 -1.5671324857e-05 1.6377639262e-07 2.5110698703e-06 -1.7235912513e-05 1.8006835228e-07 
2.512377304e-06 -1.8801341708e-05 1.9635978157e-07 2.5136129798e-06 -2.0367564252e-05 2.1264704818e-07 2.5147828719e-06 -2.1934537637e-05 2.2893305949e-07 
2.5158838582e-06 -2.3502220415e-05 2.4521871547e-07 2.5169199096e-06 -2.507057096e-05 2.6150428545e-07 2.5178872662e-06 -2.6639547553e-05 2.7778982959e-07 
2.5187897381e-06 -2.8209108464e-05 2.9407536715e-07 2.5196235306e-06 -2.9779211955e-05 3.1036090289e-07 2.5203924419e-06 -3.1349816293e-05 3.266464384e-07 
2.5210926737e-06 -3.2920879735e-05 3.4293197315e-07 2.5217280251e-06 -3.4492360548e-05 3.5921750158e-07 2.5222947041e-06 -3.6064216988e-05 3.7550303212e-07 
2.5227964699e-06 -3.7636407271e-05 3.9178854794e-07 2.523229865e-06 -3.9208889591e-05 4.0807395683e-07 2.5235984692e-06 -4.078162248e-05 4.2435925699e-07 
2.5239006445e-06 -4.2354566619e-05 4.4064487303e-07 2.5242298481e-06 -4.4714290105e-05 4.6507615163e-07 2.5243740659e-06 -4.628755605e-05 4.8135881592e-07 
2.5244728793e-06 -4.786088507e-05 4.976406534e-07 2.5245330599e-06 -4.9434249083e-05 5.1392074435e-07 2.5245656219e-06 -5.1007628833e-05 5.3019956112e-07 
2.5245786556e-06 -5.2581008189e-05 5.4647661179e-07 2.5241357967e-06 -4.3927688123e-05 4.5693340344e-07 2.5243078392e-06 -4.5500913677e-05 4.7321771951e-07 
2.5244283903e-06 -4.7074214389e-05 4.8949993644e-07 2.5245069933e-06 -4.8647564003e-05 5.0578101318e-07 2.5245521407e-06 -5.0220937955e-05 5.2206039105e-07 
2.5245737408e-06 -5.1794319058e-05 5.3833840074e-07 2.5245814035e-06 -5.3367694986e-05 5.5461455135e-07 1.2658888101e-06 -5.4154367096e-05 5.6859507619e-07 
7.1982446163e-09 -5.4154357485e-05 5.7443722958e-07 -1.2514923173e-06 -5.415435405e-05 5.8027934047e-07 1.8952358211e-06 -5.4154373605e-05 5.6567372012e-07 
6.3654316449e-07 -5.4154361571e-05 5.7151623888e-07 -6.2214671473e-07 -5.4154355082e-05 5.7735821451e-07 -1.8808393422e-06 -5.4154354164e-05 5.8320064589e-07 
-2.5098593473e-06 -4.471426419e-05 4.8850016151e-07 -2.5100013027e-06 -4.6287529469e-05 5.0476696551e-07 -2.5100958207e-06 -4.7860858804e-05 5.2103467498e-07 
-2.5101511746e-06 -4.9434223076e-05 5.3730431946e-07 -2.5101789229e-06 -5.1007602745e-05 5.5357520169e-07 -2.5101871464e-06 -5.2580982143e-05 5.6984784548e-07 
-2.5097660906e-06 -4.3927665922e-05 4.8036755066e-07 -2.5099365538e-06 -4.5500887333e-05 4.9663332725e-07 -2.5100535798e-06 -4.7074187967e-05 5.1290060525e-07 
-2.5101275549e-06 -4.8647537871e-05 5.2916917025e-07 -2.5101678452e-06 -5.0220911883e-05 5.4543955925e-07 -2.5101846221e-06 -5.1794293021e-05 5.6171125722e-07 
-2.5101873804e-06 -5.3367668994e-05 5.7798487233e-07 7.9309427645e-07 -6.5417372441e-07 9.1504645566e-09 8.0703814656e-07 -6.3045559059e-07 1.7079427472e-07 
8.1685765308e-07 -6.3533501734e-07 -1.5325498037e-07 2.5326563164e-06 -4.3144987437e-05 4.4882484683e-07 2.5369684816e-06 -4.3146921683e-05 4.488425947e-07 
2.5283430324e-06 -4.3143049994e-05 4.4880702351e-07 2.5332094721e-06 -5.4158251167e-05 5.6274943799e-07 2.5375223491e-06 -5.4160186858e-05 5.6274800598e-07 
2.5288966393e-06 -5.4156315714e-05 5.6275088239e-07 -2.5015615883e-06 -5.4158225125e-05 5.8612231416e-07 -2.4972487994e-06 -5.4160160818e-05 5.8612246143e-07 
-2.5058744791e-06 -5.4156289698e-05 5.8612216208e-07 -3.8075759353e-10 -4.1938799656e-11 -1.456209638e-12 -6.7415925398e-11 1.2150495981e-12 1.1455926723e-14 
-1.9994746715e-10 -5.3019160699e-12 -2.6253059524e-13 -2.9059946817e-11 1.5712137457e-12 -3.2712227499e-12 -2.9502379561e-11 1.592384496e-12 -1.0427726747e-14 
-9.1926461418e-11 3.120698326e-12 -1.2226168312e-11 -2.9041671605e-11 1.5190766555e-12 3.1995522828e-12 -9.1946027475e-11 2.7432101176e-12 1.1718741159e-11 
-4.5592627946e-10 -6.7742646759e-11 -3.1791379855e-11 -4.5763512382e-10 -7.1849238252e-11 -1.7406740562e-12 -3.3765864664e-10 -2.6154557165e-11 -2.849327853e-11 
-4.5759990588e-10 -6.864094139e-11 2.8530500838e-11 -3.3851108802e-10 -2.661533934e-11 2.6276070391e-11 -1.5793938599e-10 1.976038121e-12 -1.9160041123e-11 
-2.4742344861e-10 -7.1306475615e-12 -2.4909327202e-11 -1.2809781236e-10 -5.492395436e-13 -1.5271385584e-13 -2.8471336114e-10 -1.7826318394e-11 -9.2216518662e-13 
-2.4780318643e-10 -7.457279927e-12 2.3760035937e-11 -1.5790917164e-10 1.3857964627e-12 1.8727962977e-11 0 0 0 
0 0 0 0 0 0 0 0 0 
0 0 0 0 0 0 0 0 0 
0 0 0 0 0 0 0 0 0 
0 0 0 0 0 0 0 0 0 
0 0 0 0 0 0 0 0 0 
0 0 0 0 0 0 0 0 0 
0 0 0 0 0 0 0 0 0 
0 0 0 0 0 0 0 0 0 
-9.3794083234e-10 -5.8781375887e-10 3.0946645746e-12 -7.2367788216e-10 -2.5629721145e-10 -8.2127281405e-13 -9.8964727395e-10 -1.7689487028e-09 -1.0506535097e-11 
-1.049480763e-09 -1.3585153628e-09 1.9027823421e-11 -1.021175178e-09 -1.6177210928e-09 2.8502328384e-11 -1.0506701808e-09 -1.0410596169e-09 1.0176405285e-11 
-1.0090028754e-09 -1.7952887274e-09 8.5398537435e-11 -6.290380341e-10 -1.72049497e-10 -3.3906605566e-11 -6.3143805404e-10 -1.7572041864e-10 -1.697829961e-12 
-7.7422301118e-10 -3.1214646914e-10 -3.3904658402e-11 -6.3180266535e-10 -1.7390091759e-10 3.1011468499e-11 -7.773489959e-10 -3.1227450881e-10 3.2162050963e-11 
-9.773746771e-10 -1.8525066821e-09 -1.573064101e-11 -9.7605766579e-10 -1.8537278028e-09 -2.7300045648e-11 -1.0142472778e-09 -1.5917061764e-09 -2.438114656e-11 
-9.860294245e-10 -1.8561989792e-09 1.3399995311e-11 -1.0072083863e-09 -1.866748657e-09 1.0832507347e-10 -1.0021991545e-09 -1.8655579475e-09 9.6072438783e-11 
-9.9694310114e-10 -1.8692770107e-09 6.6272158087e-11 -1.038192194e-09 -1.6062189265e-09 8.184682803e-11 -1.0065412628e-09 -1.6927994689e-09 9.3689598955e-12 
-1.0036299555e-09 -1.7826305578e-09 3.533738941e-11 -1.0152582095e-09 -1.7060731255e-09 5.5928068898e-11 -9.8414437558e-10 -7.1143861916e-10 -2.813964409e-11 
-8.8427855317e-10 -4.7787015378e-10 -3.2061591558e-11 -8.3929358225e-10 -4.0222743324e-10 6.1298553756e-13 -1.0519124911e-09 -1.2254467903e-09 -1.5014322097e-11 
-1.0364401939e-09 -9.4269182408e-10 -2.3706076181e-11 -1.0121133396e-09 -8.0440313229e-10 5.8827751798e-12 -1.0268542135e-09 -1.5149427943e-09 -7.4613470536e-12 
-1.0377616949e-09 -1.4892958085e-09 2.3583426446e-11 -1.0419512097e-09 -1.3844362916e-09 -1.1156523275e-11 -1.0557060391e-09 -1.2003424542e-09 1.4262659148e-11 
-9.9054567993e-10 -7.1358296293e-10 3.7173737595e-11 -8.8899074562e-10 -4.7869876242e-10 3.4728153727e-11 -1.0626026969e-09 -1.2269120953e-09 4.5355310144e-11 
-1.0447125742e-09 -9.4467415944e-10 4.0079166909e-11 -1.0546234368e-09 -1.3855761592e-09 5.1241100533e-11 -1.0412664754e-09 -1.5157987863e-09 5.6774022283e-11 
2.1940494075e-09 -2.0089195912e-09 -3.1835301965e-11 2.9055002012e-09 -1.4881605979e-09 -3.6630710012e-11 5.0960404744e-10 -1.9520011707e-09 -2.9552095911e-11 
3.0179272276e-09 -4.8125885971e-10 2.7008360916e-11 -4.1861830249e-10 -1.6359258545e-09 -3.6304934782e-11 3.3589630533e-09 -2.3057288372e-09 -8.1402900961e-11 
-5.8109293252e-10 -1.2508805583e-09 -5.4123863786e-11 1.6839267247e-09 -2.5736096779e-09 1.4994962888e-11 2.6665036566e-09 7.8852110366e-10 6.5056239949e-11 
2.3314020605e-09 -1.3982189407e-09 -3.3632765902e-11 -5.2300934232e-10 -3.7290313963e-10 -3.1605503016e-11 1.3473164902e-09 -1.5188634916e-09 -3.2017366212e-11 
3.5748752127e-09 -1.1987246302e-09 -4.18728846e-11 3.2817844635e-09 -2.8783263669e-09 -9.0771844543e-11 -3.2409327521e-10 -2.3026452515e-09 -2.2286405411e-11 
-3.6021214875e-10 -9.965488334e-11 -3.4025032459e-11 1.9918387981e-09 2.6148839105e-09 1.5187429363e-11 2.4954251428e-09 -8.3216284045e-10 3.3934825326e-11 
3.7564443097e-09 -1.8913045673e-09 -8.5479433323e-11 7.9012122763e-11 -1.4995462539e-09 -1.7514974297e-11 3.0104018805e-10 -2.6135639693e-09 -2.5894236811e-11 
3.6847209765e-09 1.0711110945e-10 -9.6564057834e-12 -7.4785528333e-10 -9.2035351707e-10 -4.5747295859e-11 1.1668386095e-09 4.1172378418e-09 3.4751273684e-11 
-7.1300274211e-10 -1.808147446e-09 -4.7394544383e-11 3.8947012492e-09 -6.20162336e-10 -4.5870391208e-11 2.9882146197e-09 -3.0125620897e-09 -1.9740554819e-11 
3.3482015167e-10 5.3412396842e-09 5.6728473776e-11 2.0137572964e-09 -4.0132753678e-10 2.0350305162e-10 -2.5752294763e-10 -1.5556508153e-11 -4.0175023959e-11 
3.8347775775e-09 -2.4988648567e-09 -1.2017266811e-10 -1.3875135795e-10 8.0972026768e-12 -3.1587436583e-11 6.4888323309e-10 -1.3320204503e-09 -1.801724652e-11 
1.7338959561e-09 -1.1224048312e-09 -4.3145709816e-11 2.8084370194e-09 -1.95466985e-09 -4.8652016246e-11 -1.8540438128e-10 -1.1578292499e-09 -2.8097041768e-11 
2.1196150531e-09 -8.9423138315e-10 5.5599774968e-12 1.3932350884e-09 1.5723825301e-09 2.0591598577e-11 -6.3391199359e-10 -2.2008445556e-09 -3.9331313385e-11 
1.3582683934e-09 -2.0059929759e-09 -2.4227619534e-11 -4.4103580105e-10 -7.2499004986e-10 -4.5534558585e-11 3.6805430999e-09 -2.9143274765e-09 -1.2984345921e-10 
-6.9247234641e-11 9.2318507062e-12 -2.1494336054e-11 -2.854015773e-10 -1.0179512224e-11 -4.6869851635e-11 -3.9405959031e-10 -5.0127124531e-11 -5.1901436036e-11 
-4.6003593963e-10 -1.0237916366e-10 -4.9736262941e-11 -5.903229676e-10 -2.2262801937e-10 -5.0440560022e-11 -3.0500055167e-10 -4.7574807503e-11 -3.7205858789e-11 
-3.2444989589e-10 -2.3249817731e-10 4.8801724294e-12 -2.3533997658e-10 -1.0679893905e-10 -6.0249136014e-12 -2.1069297953e-10 -7.3835170337e-10 -8.4584570677e-11 
-2.6009066633e-10 -4.6328551261e-10 -3.4773273738e-11 -5.0597036023e-10 -5.1515714753e-10 -2.9910329287e-11 -8.5126480518e-10 -1.885010629e-09 -4.8344178285e-11 
-8.1063140741e-10 -2.1243745538e-09 -4.8549758986e-11 -8.1686490549e-10 -1.3448047488e-09 -4.5964152651e-11 -7.9709851474e-10 -1.6111985842e-09 -4.7613761125e-11 
-6.4820998789e-10 -1.5204087029e-09 -5.0125250103e-11 1.3100103043e-09 -2.9472032416e-09 5.2573314324e-11 2.3305185119e-09 -3.1031556794e-09 6.3535871123e-12 
-2.5687920282e-10 -3.0447374169e-09 -4.959169939e-11 4.1708637977e-10 -3.0886785193e-09 3.69495571e-11 9.6416199872e-10 -2.550371967e-09 -8.6277674787e-12 
3.9599786922e-09 -2.7378006283e-09 -1.4479813137e-10 4.0536550804e-09 -2.4327971636e-09 -1.33444025e-10 3.7252636046e-09 -3.2376662822e-09 -1.6843457747e-10 
3.8781710927e-09 -2.947774533e-09 -1.5060678601e-10 3.7545112098e-09 -2.6989263664e-09 -1.2427803444e-10 4.1608403433e-09 2.1998228466e-11 -5.9032786026e-11 
4.0284509976e-09 6.0549228207e-10 -4.4424876969e-11 3.5679307024e-09 9.7396615621e-10 -9.3124014687e-12 3.1900982431e-09 1.7389138792e-09 1.769192071e-12 
3.221075204e-09 4.1172168356e-10 3.1888262472e-11 -3.3020544229e-10 6.4251639579e-09 7.1871707376e-11 6.760685998e-10 1.9256196301e-09 -2.586675961e-11 
8.8838699563e-10 9.6639722389e-10 -7.3081085692e-13 1.3862853813e-09 -4.6589365808e-10 3.5445730534e-10 1.8301889937e-09 -3.7553583927e-10 2.22207784e-10 
1.9971900298e-09 5.1383442507e-10 1.4270353858e-10 2.3399813876e-09 3.2414369994e-11 1.3246985756e-10 2.142031918e-09 1.1624442597e-09 4.8197844673e-11 
-1.3356055541e-10 1.1725709241e-11 -3.3934732281e-11 -2.2157541334e-10 3.0862097177e-12 -4.2436785564e-11 -6.5370905969e-11 6.8686706794e-12 -1.8351638891e-11 
-1.9411827825e-10 9.6503774011e-13 -3.6367602954e-11 4.0362515907e-09 -2.1345199595e-09 -1.1477368491e-10 4.0938808298e-09 -1.8142640685e-09 -1.0249322221e-10 
3.7949845675e-09 -2.1889704636e-09 -1.0194913331e-10 4.0491380961e-09 -1.4642528872e-09 -8.3811901637e-11 4.069468722e-09 -1.1070375071e-09 -7.2094042212e-11 
3.6635943339e-09 -1.5427830631e-09 -6.4227630616e-11 4.2470410887e-09 -8.0238848807e-10 -7.6298560548e-11 4.2308583144e-09 -3.5962821865e-10 -6.9238202872e-11 
3.7150013505e-09 -9.3154066764e-10 -4.165948874e-11 3.7871406877e-09 -2.8599056666e-10 -2.7624729866e-11 3.1946232846e-09 -3.4601008778e-09 -4.7497174226e-11 
3.5545260527e-09 -3.566417665e-09 -1.7284154503e-11 2.3759061304e-09 -2.744116556e-09 -2.7505252496e-12 3.5242451112e-09 -3.4757061732e-09 -9.0830604997e-11 
3.5507780843e-09 -3.2784715371e-09 -1.4842528091e-10 3.1633738904e-09 -2.9668108369e-09 -6.11684355e-11 3.4757522776e-09 -2.9080788959e-09 -1.1078038551e-10 
-7.5634831636e-11 4.2192492719e-12 -2.0420814626e-11 -1.8611444449e-10 -4.8609976019e-11 -1.5159963572e-11 -1.5722993583e-10 -1.8187455566e-11 -2.2953361057e-11 
-1.2829458776e-10 -3.3653591619e-12 -2.3659746876e-11 -4.3320650531e-10 -2.0157151738e-10 -3.1970203105e-11 -7.7094268443e-10 -2.3406648871e-09 -4.1755205388e-11 
-6.8155116054e-10 -2.5986505841e-09 -2.3505909092e-11 -6.7827978515e-10 -1.9924596226e-09 -4.4541382965e-11 -5.9517171169e-10 -2.7074235135e-09 -3.4399964485e-11 
-4.4761162882e-10 -2.8799081722e-09 -4.952158503e-11 -4.984404516e-10 -2.2598724161e-09 -2.8645563046e-11 -9.9983869352e-11 -2.4764594873e-09 -3.2892721188e-11 
2.9035513116e-09 2.6532268051e-09 2.8435021882e-13 2.3583203205e-09 3.4282792241e-09 1.7676304258e-11 2.3522491754e-09 1.6911268785e-09 2.3800251854e-11 
1.9585433361e-09 4.1959822556e-09 3.1425180518e-11 1.3480501465e-09 4.8788301681e-09 4.5600782368e-11 1.5681798149e-09 3.3690360489e-09 2.1684496746e-11 
9.3161480261e-10 5.4907813943e-09 5.5741777126e-11 2.5416118539e-10 6.09570685e-09 6.5548710108e-11 7.5052033924e-10 4.7298463319e-09 4.6399146164e-11 
-2.490745438e-10 5.6708884653e-09 6.3285595099e-11 -6.7890363553e-10 -3.7911247146e-10 -4.9384020418e-11 -7.7578397872e-10 -6.2168049725e-10 -4.6534328731e-11 
-8.8194851892e-10 -8.7874445424e-10 -4.9435725841e-11 -8.9717025417e-10 -1.1735589995e-09 -4.3539552386e-11 -6.4560175264e-10 -6.3403102405e-10 -4.0582440819e-11 
-6.620092501e-10 -1.0867196641e-09 -5.0026199769e-11 -1.2971925457e-11 4.7194133568e-09 5.0908319563e-11 4.0206857241e-10 4.1091457699e-09 3.9656325171e-11 
6.3424587055e-10 3.1733665878e-09 2.0911505141e-11 1.0192737588e-09 2.4474641103e-09 6.8921012239e-13 1.7020016344e-09 2.0885486269e-09 1.4429417342e-11 
-1.9984385527e-11 -1.0250505779e-09 -9.1348874709e-12 -1.5364891411e-10 -9.4657618412e-10 -4.5133101866e-11 -2.9886677125e-10 -9.7515253522e-10 -6.415159988e-11 
-3.7306338645e-10 -1.1999303857e-09 -4.8125323597e-11 -5.0610257684e-10 -9.9762865956e-10 -5.5197594484e-11 8.4738888925e-10 -1.0833275611e-09 -2.4491868106e-11 
4.0159639227e-10 -1.0936273756e-09 -4.9667915931e-12 1.4676807262e-10 -1.1819082578e-09 -3.6626876543e-12 3.4512175975e-10 -1.4126338943e-09 -1.5183602337e-11 
-7.9963069317e-11 -1.3202949514e-09 -2.0533827587e-11 1.7369565331e-09 -8.8321744898e-10 -4.4892469142e-11 1.4052826825e-09 -9.7246658461e-10 -4.6433376131e-11 
1.1914951582e-09 -1.1866667123e-09 -3.7442167511e-11 9.8746642045e-10 -1.4241921791e-09 -2.6997970905e-11 1.5578945728e-09 -1.3190035624e-09 -3.8639099436e-11 
1.9384324963e-09 -6.6311799194e-10 5.0840031053e-11 1.9227235315e-09 -7.8001663674e-10 -8.3635856128e-12 1.9742605575e-09 -9.884690764e-10 -2.5545687997e-11 
2.0247766223e-09 -6.2398749857e-10 9.0154814203e-11 2.2776283024e-09 -6.1880013915e-10 1.0768783924e-10 2.2790509104e-09 -8.6987561425e-10 2.4909620799e-11 
1.9897159285e-09 -2.2814122206e-09 -1.5284645749e-11 2.5338225896e-09 -2.481861276e-09 -2.822060261e-11 1.4993189172e-09 -2.2786321385e-09 -7.4548442895e-12 
1.8016835733e-09 -1.9922364247e-09 -2.7204614345e-11 2.2770792153e-09 -1.7009740621e-09 -3.5133624815e-11 1.9227894114e-09 -1.5512489177e-09 -3.4488392536e-11 
2.0301309604e-09 -1.2481904989e-09 -3.5997523155e-11 2.5625306307e-09 -1.6691584619e-09 -3.8912938957e-11 2.5386481438e-09 -1.9804132502e-09 -3.9468501807e-11 
1.7477865193e-09 -1.7438457345e-09 -3.0171831808e-11 1.3518170738e-09 -1.7606973333e-09 -2.7535156576e-11 2.7787095471e-09 -2.4179019688e-09 -4.7163961677e-11 
3.0341354159e-09 -2.3829968939e-09 -6.2192182136e-11 3.1420005264e-09 -1.8861670113e-09 -5.5732773908e-11 3.3434907664e-09 -1.7051008706e-09 -5.8306434066e-11 
3.5402544782e-09 -2.0971508534e-09 -8.2382066502e-11 3.0930064968e-09 -2.1348400778e-09 -6.3606570451e-11 2.8565340596e-09 -1.7121981719e-09 -4.2701709267e-11 
2.613748453e-09 -1.4418974375e-09 -3.3489101673e-11 2.2309631637e-09 -1.1317456541e-09 -1.839272252e-11 2.4926611895e-09 -1.1826256915e-09 -1.2971294997e-11 
3.2028622445e-09 -1.362295591e-09 -3.4146171761e-11 2.7068915667e-09 -1.1493631243e-09 -3.1458020319e-12 3.0462467938e-09 -1.0251953166e-09 -3.418579543e-12 
9.4345949802e-10 -1.7227042335e-09 -2.7401097183e-11 5.9339006402e-10 -1.6379463037e-09 -2.2690634651e-11 9.0943172689e-10 -1.9674942726e-09 -2.8134896719e-11 
3.2685118797e-11 -2.1169886668e-09 -3.1933833565e-11 -1.0335594627e-10 -1.8758246203e-09 -2.7720606302e-11 2.7154430874e-10 -1.7293069624e-09 -2.2769864947e-11 
4.2634124204e-10 -2.2746810404e-09 -3.8303457931e-11 8.8539688923e-10 -2.2718911538e-09 -2.6853470766e-11 2.849139733e-09 -2.1632954853e-12 7.8344494161e-11 
3.3297847442e-09 -2.2635027467e-10 2.0826169183e-11 2.547791518e-09 -4.3981588466e-10 9.9074352201e-11 3.3105146714e-09 -8.4865396388e-10 -8.9593991116e-12 
2.7081377779e-09 -6.9661723131e-10 4.0016704168e-11 3.4770800916e-09 -5.475360054e-10 -1.2139897208e-11 -5.0050441577e-10 -1.4314375969e-09 -4.7725173907e-11 
-5.7237132286e-10 -1.7289225107e-09 -4.3504977822e-11 -2.9747601772e-10 -1.3899939106e-09 -3.2725522596e-11 -3.7692115093e-10 -1.9554937029e-09 -3.3969770486e-11 
-2.0045897856e-10 -1.5662590315e-09 -2.675557271e-11 -5.3051795192e-10 -1.9159970436e-09 -4.001370805e-11 3.3041205797e-09 -2.5766623641e-09 -8.2544807778e-11 
3.5333430859e-09 -2.6124634918e-09 -1.0232140473e-10 3.6043164703e-09 -2.4131204727e-09 -9.9409939732e-11 -6.0225525541e-10 -8.2505672118e-10 -4.3975448628e-11 
2.2214615189e-09 -1.8895934285e-09 -7.8786672005e-11 2.9745385578e-09 -1.4320835658e-09 -1.0971632586e-10 4.3277862957e-10 -1.8720720013e-09 8.120183902e-11 
3.0667961972e-09 -4.5254425783e-10 -9.1893503604e-11 -4.8108708821e-10 -1.6230720084e-09 9.9173153668e-11 3.4829984284e-09 -2.2265402571e-09 -1.7355272796e-10 
-6.17679009e-10 -1.2465563713e-09 8.9254952854e-11 1.59238366e-09 -2.3399202933e-09 -2.1814149764e-11 2.7065908474e-09 8.0736348906e-10 -7.4761684389e-11 
2.3815656792e-09 -1.3340804744e-09 -7.1690095925e-11 -5.3535839277e-10 -3.7851575042e-10 3.5728748017e-11 1.3374934409e-09 -1.4476271821e-09 -2.1843765709e-12 
3.6421291481e-09 -1.160535861e-09 -1.0042724812e-10 3.4659217655e-09 -2.7227498585e-09 -2.3005376896e-10 -4.4241991801e-10 -2.2642042145e-09 1.5861975309e-10 
-3.6351087936e-10 -1.0191153041e-10 3.2585566456e-11 2.0294826872e-09 2.6312331814e-09 2.1643921957e-11 2.5476809113e-09 -7.915303877e-10 -1.0482758527e-10 
3.8495753474e-09 -1.8432646908e-09 -1.4680592104e-10 1.6311501331e-11 -1.4650315645e-09 5.4747653154e-11 1.2059204653e-10 -2.4610351534e-09 1.9415801184e-10 
3.732586602e-09 1.2997504938e-10 -4.2332721565e-11 -7.6922468744e-10 -9.212131356e-10 6.5363773287e-11 1.2019041371e-09 4.1328967189e-09 4.3339926723e-11 
-7.7061854232e-10 -1.8063734421e-09 1.2415991405e-10 3.9509559777e-09 -5.926507469e-10 -5.8574873278e-11 3.1095546954e-09 -2.743455858e-09 -2.3868730926e-10 
3.6970425683e-10 5.3566187387e-09 5.6267619158e-11 2.0510055547e-09 -3.7747806398e-10 -2.3423958894e-10 -2.5839074807e-10 -1.6431185699e-11 3.8706115626e-11 
3.9681521729e-09 -2.4364119124e-09 -2.1069346014e-10 -1.3892377393e-10 8.6124566413e-12 3.067819313e-11 6.1094474862e-10 -1.2860998368e-09 1.9544504795e-11 
1.7593081844e-09 -1.0646259833e-09 -6.7035262344e-12 2.8972763734e-09 -1.8658338597e-09 -1.2128075899e-10 -2.3500387225e-10 -1.1380667001e-09 5.0720716685e-11 
2.1681408206e-09 -8.4378577405e-10 -6.4166525445e-11 1.4256997468e-09 1.5922939598e-09 -2.6577503841e-12 -7.2339414744e-10 -2.1977928587e-09 1.5242948321e-10 
1.3248638449e-09 -1.8871619879e-09 6.5040452417e-12 -4.5767680744e-10 -7.2178347774e-10 5.6908977587e-11 3.8754552964e-09 -2.8234012531e-09 -2.5932963313e-10 
-6.9463436402e-11 9.3218496406e-12 2.2169070792e-11 -3.9592128455e-10 -5.1784434142e-11 4.9689898696e-11 -2.8609469845e-10 -1.0954358259e-11 4.5217188418e-11 
-5.9554519552e-10 -2.2353736334e-10 4.9362052962e-11 -4.6317603833e-10 -1.0455377346e-10 4.7993544282e-11 -3.068964344e-10 -4.9056834081e-11 3.568922978e-11 
-2.383692378e-10 -1.0569765959e-10 7.3150197599e-12 -3.2910852773e-10 -2.3115567387e-10 -1.52316335e-12 -2.6857216645e-10 -4.6146684092e-10 3.8942834751e-11 
-2.3525080944e-10 -7.2867213068e-10 9.0215394284e-11 -5.1918584097e-10 -5.1558417e-10 3.6989647474e-11 -8.4048663653e-10 -1.6113459734e-09 1.0729377125e-10 
-8.4921516071e-10 -1.3454374088e-09 8.6762075982e-11 -8.780526771e-10 -2.1244267116e-09 1.5480905782e-10 -9.0512429518e-10 -1.8870639467e-09 1.3063340749e-10 
-6.9483273495e-10 -1.5169241454e-09 1.0363425995e-10 1.1172449564e-10 -2.8311987687e-09 3.0142069681e-10 -4.5885274192e-10 -2.8764903233e-09 3.5171479295e-10 
2.2998053851e-09 -2.7746674742e-09 -1.4110811823e-10 1.0879858435e-09 -2.6246678532e-09 1.0732360008e-10 8.1606879363e-10 -2.350706855e-09 9.7466538582e-11 
4.1721099145e-09 -2.3794499266e-09 -2.0548536491e-10 4.1057605682e-09 -2.6727612275e-09 -2.4640510161e-10 4.0528465977e-09 -2.8701268667e-09 -2.7856610889e-10 
3.9733732225e-09 -3.1298186722e-09 -3.1178636419e-10 3.913324252e-09 -2.6249540028e-09 -2.345878427e-10 4.0752870942e-09 6.2619656153e-10 5.8913068464e-12 
4.2124027809e-09 4.5083101958e-11 -1.0429543126e-11 3.2298226127e-09 1.7567844885e-09 4.9966645922e-12 3.6109510218e-09 9.9333890849e-10 -8.432826209e-12 
3.2648551016e-09 4.3269072921e-10 -6.1366668778e-11 -2.9532711087e-10 6.4405794531e-09 7.1321429749e-11 1.8723315471e-09 -3.42216348e-10 -2.4620414454e-10 
1.4107639299e-09 -4.5710402858e-10 -3.6904816963e-10 9.0471603996e-10 9.7515458875e-10 1.0293558236e-11 7.0820949433e-10 1.9429101059e-09 5.6145141816e-11 
2.3777075618e-09 5.0473719989e-11 -1.5314099864e-10 2.0308241891e-09 5.2640450404e-10 -1.4623630676e-10 2.1800780973e-09 1.1809968101e-09 -4.327511966e-11 
-2.2187250032e-10 3.0402246687e-12 4.1303167589e-11 -1.3381446782e-10 1.2358476158e-11 3.2918609654e-11 -6.5610967922e-11 6.6674865027e-12 1.9175985066e-11 
-1.9451852231e-10 6.7253679818e-13 3.5252851843e-11 -7.5664779839e-11 4.2477837102e-12 1.9875787427e-11 -1.5795618517e-10 -1.9027528363e-11 2.2282327208e-11 
-1.8768139428e-10 -4.9281920809e-11 1.4326224896e-11 -1.2852850547e-10 -3.7363708942e-12 2.2960032615e-11 -4.398117335e-10 -1.9895966019e-10 3.2832432482e-11 
-7.8905221543e-10 -6.2483827038e-10 5.5688590194e-11 -6.8862280125e-10 -3.8192745195e-10 5.2048495682e-11 -9.2227091997e-10 -1.1757067957e-09 7.4017328943e-11 
-9.000482461e-10 -8.815248777e-10 6.6530150798e-11 -6.6157088167e-10 -6.3545532159e-10 5.0885658559e-11 -6.8994662296e-10 -1.0852397929e-09 7.6659465617e-11 
-8.0960133169e-10 -2.6040709182e-09 1.9726169529e-10 -8.5525726937e-10 -2.3397356737e-09 1.69461658e-10 -7.4939540959e-10 -1.9898224483e-09 1.3799423263e-10 
-6.5090689463e-10 -2.8253719561e-09 3.0020275274e-10 -7.2482747639e-10 -2.6756764655e-09 2.2562173744e-10 -6.0323644266e-10 -2.242425327e-09 1.5762933193e-10 
-2.4846671736e-10 -2.404370685e-09 1.9515406311e-10 4.1815237238e-09 -1.7729938565e-09 -1.3848871259e-10 4.1384345597e-09 -2.0868093342e-09 -1.7059028651e-10 
3.9056287743e-09 -2.1341166447e-09 -1.7499451065e-10 4.1373540899e-09 -1.0733594851e-09 -8.1150255283e-11 4.1255751848e-09 -1.4277191158e-09 -1.0865188655e-10 
3.742072523e-09 -1.5005485375e-09 -1.2034010763e-10 4.2867674462e-09 -3.3383493899e-10 -2.6433630198e-11 4.3085690113e-09 -7.7304146596e-10 -5.4863463978e-11 
3.7771905958e-09 -8.9697771954e-10 -8.0912996621e-11 3.8394288757e-09 -2.6024453302e-10 -4.8707879749e-11 2.3951087702e-09 3.4438957829e-09 3.4408600416e-11 
2.9416403703e-09 2.6696940287e-09 3.0374918744e-11 2.3901549717e-09 1.7091867944e-09 -9.5635850415e-12 1.383197185e-09 4.8943140449e-09 4.7519663493e-11 
1.994301481e-09 4.2115378197e-09 4.1094452842e-11 1.6041732732e-09 3.3849761775e-09 3.5661960464e-11 2.8921193349e-10 6.1111025811e-09 6.470608781e-11 
9.6663002794e-10 5.5062191204e-09 5.4774897477e-11 7.8549673266e-10 4.7452690953e-09 4.9126011986e-11 -2.1429604182e-10 5.6861942085e-09 6.2516228291e-11 
3.8549575712e-09 -3.2780871995e-09 -4.2364159781e-10 3.2325269178e-09 -3.1264589596e-09 -3.2144488677e-10 2.390638994e-09 -2.5064910792e-09 -1.285908e-10 
3.8357830109e-09 -3.156152627e-09 -3.0282340844e-10 3.8495343984e-09 -3.2554586656e-09 -3.6001545068e-10 3.3317567803e-09 -2.7542740846e-09 -2.383990408e-10 
3.6773083863e-09 -2.7900052815e-09 -2.4195379202e-10 -1.9705262053e-10 -9.2847423512e-10 5.1644715538e-11 -7.0075936605e-11 -1.0001486003e-09 1.3699561011e-11 
-4.1569898517e-10 -1.1883013038e-09 7.8779800475e-11 -3.3241301942e-10 -9.6356427129e-10 8.1029016536e-11 -5.330425811e-10 -9.928315748e-10 7.6231607983e-11 
3.5851074203e-10 -1.0574635995e-09 2.1948550848e-12 8.2415576917e-10 -1.0383308816e-09 9.7297895101e-12 2.9301134964e-10 -1.372000224e-09 3.4645254495e-11 
9.4140825388e-11 -1.1507780121e-09 1.4494492229e-11 -1.3622975095e-10 -1.2946226863e-09 5.0664567298e-11 1.4144158209e-09 -9.2101263091e-10 1.5526928922e-11 
1.7677370894e-09 -8.3074576451e-10 7.7625387327e-12 9.6246435437e-10 -1.3662701145e-09 1.4886277004e-11 1.1839564629e-09 -1.1344259884e-09 1.2307056071e-11 
1.5675165543e-09 -1.2560919571e-09 -8.1538155478e-12 1.965668054e-09 -7.3053022265e-10 -3.0999031579e-11 1.9841383396e-09 -6.1872218392e-10 -8.5805762759e-11 
2.0157946552e-09 -9.3408050588e-10 -3.1905422764e-11 2.3227052034e-09 -5.8516577603e-10 -1.5779065414e-10 2.0715828097e-09 -5.8399451204e-10 -1.3222660075e-10 
2.3369136351e-09 -8.2318955519e-10 -8.8854435271e-11 2.1882232914e-11 4.7346985261e-09 5.1649286635e-11 6.6814644055e-10 3.1888657949e-09 4.0540426664e-11 
4.3691477283e-10 4.1243669478e-09 4.5346265139e-11 1.0523776221e-09 2.4643691344e-09 4.1920410967e-11 1.7386417565e-09 2.1064010244e-09 1.2471630569e-11 
2.5967733431e-09 -2.2929030236e-09 -1.4260288968e-10 1.9827613137e-09 -2.1041474237e-09 -6.2278906229e-11 1.8029339524e-09 -1.8686570828e-09 -4.1383150828e-11 
1.4439904173e-09 -2.107779908e-09 -6.4287817052e-12 2.0734317204e-09 -1.189815773e-09 -3.9046153065e-11 1.9535175266e-09 -1.4721646193e-09 -4.1202749645e-11 
2.3204243459e-09 -1.6094841914e-09 -7.4952139179e-11 2.6024008852e-09 -1.8760119125e-09 -1.0460595398e-10 2.6337612631e-09 -1.5934097303e-09 -9.4815867596e-11 
1.7575540904e-09 -1.650485313e-09 -3.4433506579e-11 1.3336012545e-09 -1.6683534691e-09 -2.0759228405e-12 2.8903135426e-09 -2.2854070408e-09 -1.4852698478e-10 
3.1690767317e-09 -2.272147452e-09 -1.6783627577e-10 3.6473242693e-09 -2.0360527516e-09 -1.622794928e-10 3.4263732293e-09 -1.6525753612e-09 -1.295729247e-10 
3.232097672e-09 -1.8184571256e-09 -1.3507946147e-10 2.9328356118e-09 -1.6426136982e-09 -1.1445401978e-10 3.2003988703e-09 -2.0508604766e-09 -1.4721363239e-10 
2.675277814e-09 -1.3826450201e-09 -9.3056873552e-11 2.5551503412e-09 -1.130442327e-09 -8.7548868728e-11 2.2778190482e-09 -1.0739209333e-09 -6.5669641983e-11 
3.1053113738e-09 -9.8518613045e-10 -1.0272155437e-10 2.7649118526e-09 -1.0988454607e-09 -1.0409890074e-10 3.2715891972e-09 -1.3164783341e-09 -1.1174481395e-10 
5.4022454242e-10 -1.5773797304e-09 4.428671705e-11 9.0256169613e-10 -1.6445806106e-09 3.0037738859e-11 8.5019364799e-10 -1.8672090822e-09 4.9371383581e-11 
2.0219573341e-10 -1.6768879092e-09 7.0244296425e-11 -1.9009828905e-10 -1.8394780413e-09 1.0530453189e-10 -7.0800098186e-11 -2.0560595268e-09 1.3188678107e-10 
3.0938158928e-10 -2.1656495251e-09 1.3143149952e-10 7.8723391402e-10 -2.1302477833e-09 7.946475145e-11 3.3781652086e-09 -2.0137623638e-10 -7.9525263334e-11 
2.8920491651e-09 1.9440223147e-11 -1.1357477079e-10 2.5912988034e-09 -4.1299480597e-10 -1.4647085834e-10 2.7580001051e-09 -6.6203591639e-10 -1.092715889e-10 
3.3681349183e-09 -8.1384134036e-10 -9.2586367333e-11 3.5307043734e-09 -5.187404832e-10 -7.2001272763e-11 -6.3306040768e-10 -1.7224522471e-09 1.1361450142e-10 
-5.4922248148e-10 -1.4235219693e-09 9.4944447093e-11 -3.5275153394e-10 -1.37342169e-09 7.468240286e-11 -2.6441738251e-10 -1.5436744398e-09 7.9359682934e-11 
-4.6167881964e-10 -1.9352804067e-09 1.2477899898e-10 -6.0490011425e-10 -1.9076550942e-09 1.2665765449e-10 3.4558212278e-09 -2.4688322257e-09 -1.9972862312e-10 
3.6902515951e-09 -2.5259216191e-09 -2.1412646365e-10 3.7367861085e-09 -2.3426346923e-09 -1.9418380354e-10 -6.2248952417e-10 -8.2417392122e-10 5.9839270632e-11 
1.601243415e-09 -1.22712964e-10 -4.2093937871e-12 -1.0294364117e-10 -6.3649301211e-10 -2.9577448703e-12 1.8812306518e-09 -6.1829497062e-10 -1.4424277887e-11 
1.4660916688e-09 -7.5637615798e-10 -1.2190638528e-11 5.7482375854e-10 -8.399963831e-10 -7.6971589707e-12 -4.6937689274e-12 -8.6984746703e-10 -3.9392855272e-12 
-4.9220370984e-11 -3.8761281409e-10 -1.8537779637e-12 -5.9772176265e-11 -3.9811533217e-10 -3.2771589669e-11 -1.2720840055e-10 -7.1406454226e-10 -3.8395054155e-11 
-6.8514458656e-11 -3.9563245153e-10 2.87207254e-11 -1.4563103758e-10 -7.0894962218e-10 3.2454731129e-11 1.7814339033e-09 -3.6267058638e-10 1.2523380024e-10 
1.2414712888e-09 2.9449741436e-10 1.4886433608e-10 1.1067136806e-09 3.9574169284e-10 -9.6899575277e-13 1.2591568563e-09 3.076600015e-10 -1.497926272e-10 
1.8053380202e-09 -3.4629048889e-10 -1.3619222053e-10 9.1787762716e-11 -8.8895008437e-10 -5.4662403225e-14 -9.5525181861e-11 -8.4843965248e-10 -2.1222677377e-11 
-1.1262169341e-10 -7.8521476006e-10 -3.12852594e-12 8.0683659187e-10 -8.2532722753e-10 -1.7076184707e-11 3.8078140549e-10 -8.7236178316e-10 1.3440825839e-12 
2.3293020561e-10 -8.7673803665e-10 -5.0036851581e-12 1.2562864823e-09 -7.8514447946e-10 -3.2393472371e-11 1.622424719e-09 -7.5056234962e-10 -2.7125348598e-11 
1.0288397518e-09 -7.9990458277e-10 -1.0634052775e-11 1.8317459115e-09 -6.8718353663e-10 -1.2711526085e-11 1.8903722447e-09 -5.5843366447e-10 3.7460691959e-11 
1.7307809917e-09 -7.0167630286e-10 -1.3869950487e-11 1.8156403314e-09 -4.254106809e-10 -9.242253994e-12 -1.1845740911e-10 -8.3985627519e-10 1.3710749936e-11 
6.7839998644e-11 -8.7412025208e-10 -1.0822908326e-11 3.597498288e-10 -8.5150150996e-10 -1.5762798371e-11 7.9490165435e-10 -7.9820128078e-10 -1.3800231445e-12 
1.6312597818e-09 -7.2089094507e-10 3.0250464141e-12 1.2553605594e-09 -7.548486806e-10 9.5705001322e-12 1.9136090014e-09 -5.3734448427e-10 -5.5690289694e-11 
1.8487823539e-09 -6.6110222823e-10 -1.0825515323e-11 -9.3043703028e-10 -2.1833370539e-09 -3.8643290329e-11 -8.9225693547e-10 -2.4535520876e-09 -3.0573538667e-11 
-3.5207383003e-10 -3.6484626956e-09 2.9762555888e-10 -7.8260523569e-10 -3.5427683976e-09 1.9104228608e-10 -7.2986419871e-10 -3.0554725646e-09 2.5957777956e-11 
-8.1143170919e-10 -2.7433406355e-09 -1.4448803937e-11 -7.6060511742e-10 -3.3237884851e-09 8.2675683976e-11 -1.0470591364e-09 -3.1077427921e-09 8.402623963e-11 
-1.0001677093e-09 -2.350215854e-09 5.9098298716e-11 -2.5321809625e-07 -2.4401703724e-07 -2.7672331506e-08 -1.9321026382e-08 -2.647171754e-08 4.1148091676e-09 
-7.9134363434e-10 -3.3345408688e-09 1.8816145754e-10 -9.8761896905e-10 -2.13431586e-09 5.077785382e-11 -9.7149839933e-10 -2.1273722613e-09 1.270509912e-11 
-9.9390794826e-10 -2.4778094037e-09 2.0421209201e-11 -9.9075857804e-10 -2.1271832681e-09 8.9177439199e-11 -1.0229204622e-09 -2.4799749388e-09 1.1068951939e-10 
-4.7291685879e-07 -4.4089343648e-07 -1.4456510433e-08 -4.9579853061e-07 -4.2380593954e-07 -1.3566436182e-07 -1.9419528844e-07 -1.8165003841e-07 -7.3245469037e-08 
-5.0249468196e-07 -4.3541131423e-07 1.1315830399e-07 -1.7573510903e-07 -1.7790401521e-07 4.2517569667e-08 -6.5028688671e-08 -7.6631291023e-08 -2.7407569476e-08 
-7.4721981406e-09 -1.3221857842e-08 -1.1584506595e-09 -9.8710616688e-08 -1.1400888129e-07 5.5608491173e-10 -8.6165195793e-10 -4.0427691346e-09 -7.4029296848e-10 
-7.2243968152e-10 -3.4942523479e-09 2.0772845814e-10 -4.7137069506e-09 -8.5083856015e-09 1.1979257505e-09 -9.3778342633e-10 -3.3363493199e-09 6.6030499926e-11 
-1.0165051799e-09 -2.8569408575e-09 3.820448128e-11 -9.2179803183e-10 -3.4801743275e-09 1.218757995e-10 -1.0321547116e-09 -2.698307167e-09 7.149543935e-11 
-1.0021799611e-08 -1.4354975473e-08 6.1144579703e-09 -5.5548566339e-08 -6.3984818127e-08 3.2862478912e-08 -9.8673741947e-10 -3.5554428344e-09 1.6621747173e-10 
-1.928935967e-09 -4.3696362914e-09 1.6667100411e-09 -1.0708358211e-09 -2.8645926882e-09 1.1775402023e-10 -1.0651617406e-09 -3.3906488626e-09 1.3756782424e-10 
-9.8196648881e-10 -2.1851873961e-09 1.5060433638e-10 -9.5972692864e-10 -2.4555954189e-09 1.6878225207e-10 -5.6412422179e-10 -3.3722425463e-09 2.6248837453e-10 
-1.0035161534e-09 -3.3328564977e-09 3.1707370478e-10 -9.0904263024e-10 -2.7381325459e-09 1.819327264e-10 -9.2109330961e-10 -3.2323963879e-09 2.7552696835e-10 
-8.8154254097e-10 -3.0300579577e-09 2.1446652688e-10 1.9865335422e-09 -3.8485995737e-09 1.9947771576e-11 3.3975374429e-09 -3.987738725e-09 -3.3206691158e-10 
3.9456069583e-09 -3.2587332028e-09 -1.9418057743e-10 3.7512643908e-09 -3.5522219687e-09 -2.2685476228e-10 3.795049691e-09 -3.9666225079e-09 -2.4340839135e-10 
3.8383026727e-09 -4.0581761438e-09 -3.2303760275e-10 3.6215367168e-09 -3.7934558064e-09 -2.3843138217e-10 4.6009285372e-09 -6.577775305e-10 -5.515263178e-11 
4.5847394837e-09 -4.3180133526e-10 -7.4412661053e-11 4.5775070023e-09 2.4168298032e-10 -2.1056586255e-11 4.262587083e-09 -2.5907347888e-09 -2.0994903943e-10 
4.2467790297e-09 -2.5325436727e-09 -1.7420125553e-10 4.4771436677e-09 -1.5848817803e-09 -1.1386261029e-10 4.5433009669e-09 -1.1159962275e-09 -9.538761465e-11 
4.5483229695e-09 -1.2580833591e-09 -9.2552809999e-11 4.3862297941e-09 -2.0114556747e-09 -1.3831711827e-10 4.4651030382e-09 -1.7698206407e-09 -1.3025372102e-10 
4.3790559489e-09 -2.1613760475e-09 -1.6386596976e-10 4.5442129567e-09 4.1081126447e-10 -5.7190596723e-11 4.1615839827e-09 -2.7495668555e-09 -1.7523287816e-10 
4.170682186e-09 -2.7441872101e-09 -1.8190960404e-10 4.2613024782e-09 -2.4453355631e-09 -1.5821786694e-10 4.5632383383e-09 1.6507786847e-10 -7.8033288516e-11 
4.4875488361e-09 7.7088100269e-10 -6.7573889298e-11 4.4898104091e-09 7.9517182096e-10 -3.4054898337e-11 4.2249131099e-09 -2.7482951312e-09 -2.3806636989e-10 
4.2358037964e-09 -2.7434434597e-09 -2.4570707852e-10 4.3217242692e-09 -2.4497509487e-09 -2.0508325525e-10 4.6017735659e-09 9.87526822e-11 -4.2794036702e-12 
4.5345593993e-09 6.8886349089e-10 1.6095568162e-11 4.5153968771e-09 6.9857338785e-10 -1.608155737e-11 4.1928443735e-09 -2.7317958327e-09 -1.9754131232e-10 
4.203503048e-09 -2.7592086714e-09 -2.194065481e-10 4.333227564e-09 -2.1866983036e-09 -1.4300100527e-10 4.4117922228e-09 -1.8626571564e-09 -1.2685145034e-10 
4.3199046861e-09 -2.2759653246e-09 -1.5542840447e-10 4.5438481922e-09 -1.0454666961e-09 -9.9312110849e-11 4.4939749135e-09 -1.4241656185e-09 -1.0954047143e-10 
4.4569183394e-09 -1.6460300021e-09 -1.1699214616e-10 4.5129566817e-09 -1.357160215e-09 -1.0410634903e-10 4.4345719103e-09 -1.801596282e-09 -1.2675824723e-10 
4.5693762641e-09 -7.1407091866e-10 -9.1867259694e-11 4.579178218e-09 -2.5346052136e-10 -8.3919556958e-11 4.5718721295e-09 -7.910163064e-10 -8.3970366009e-11 
4.5800467113e-09 -3.5067253842e-11 -6.6168961805e-11 4.4499988229e-09 -1.9211340762e-09 -1.4734350972e-10 4.3771575634e-09 -2.2355861498e-09 -1.7934780346e-10 
4.322245642e-09 -2.3788083151e-09 -1.8576611384e-10 4.5811635648e-09 -1.1023535245e-09 -7.4811968505e-11 4.5325698277e-09 -1.4712136125e-09 -1.0757844138e-10 
4.4896759116e-09 -1.7215967243e-09 -1.2926730025e-10 4.509622366e-09 -1.5218629108e-09 -1.1127876305e-10 4.423996784e-09 -1.9686240133e-09 -1.4660053444e-10 
4.6044315372e-09 -8.0479106158e-10 -5.298553324e-11 4.6172313955e-09 -3.6256229631e-10 -2.5549345225e-11 4.5805462478e-09 -9.6937533575e-10 -7.2958228467e-11 
4.6052272667e-09 -2.3762975687e-10 -3.6585502823e-11 4.2533664419e-09 -2.5610895629e-09 -1.9080859607e-10 4.5603131177e-09 3.3011274624e-10 -3.9273184399e-11 
4.5927414743e-09 -5.4285890689e-10 -6.3064457511e-11 4.5900083444e-09 -1.0669076087e-10 -4.9988643045e-11 4.5757653414e-09 -8.8989121407e-10 -7.7173254451e-11 
4.5454542221e-09 -1.1870208696e-09 -9.2480921059e-11 4.3151305614e-09 -2.3476951439e-09 -1.7126025331e-10 4.3818835169e-09 -2.0857463119e-09 -1.4977459497e-10 
4.5141985735e-09 -1.4233630786e-09 -1.0464531717e-10 4.4710635823e-09 -1.6777317606e-09 -1.2133523061e-10 4.4261499142e-09 -1.8900708251e-09 -1.3545601919e-10 
-2.9029210948e-10 7.2266141266e-09 8.0187625989e-11 4.0487553964e-09 2.2109334198e-09 4.6003237059e-12 1.044767249e-09 6.128310579e-09 6.1736586267e-11 
2.178509615e-09 4.9872839882e-09 4.3911692106e-11 3.2006238087e-09 3.7167405291e-09 2.5801599045e-11 4.2439197069e-09 1.6892134812e-09 -3.1570473051e-11 
3.91830527e-09 2.468205056e-09 -1.1732702588e-11 4.249237576e-09 1.6908762939e-09 -3.5783968553e-12 -7.9282157525e-10 7.5738853607e-09 8.6476623702e-11 
-5.6800723392e-11 7.0402630212e-09 7.7232991286e-11 -7.8414619408e-10 7.5777438275e-09 8.6425342009e-11 4.2657512177e-09 1.6983425764e-09 2.4382135838e-11 
3.9386957683e-09 2.4768300975e-09 2.8557502339e-11 -7.7543236686e-10 7.5816579566e-09 8.6379249658e-11 -3.9358425438e-11 7.048024617e-09 7.6806025193e-11 
2.9851724519e-09 4.0008427743e-09 2.3440938362e-11 3.5043832759e-09 3.228387165e-09 4.9297217892e-12 3.6678324818e-09 2.9703694149e-09 1.5446973892e-11 
1.8587154364e-09 5.3187390604e-09 4.9332645557e-11 2.4723816904e-09 4.6392394861e-09 3.5930531845e-11 2.7034388301e-09 4.3695274264e-09 3.4907761912e-11 
1.2900644497e-09 5.8870633696e-09 5.8469323807e-11 6.1494515168e-10 6.4960228326e-09 6.8303037405e-11 1.6247373814e-09 5.5723289776e-09 5.2887414264e-11 
3.9159245407e-10 6.6947918682e-09 7.106569721e-11 3.5236854522e-09 3.2365937408e-09 3.3181661914e-11 3.0037764454e-09 4.0088562546e-09 3.598068018e-11 
2.4904365863e-09 4.6471954109e-09 4.1687403536e-11 1.8764385922e-09 5.3265720248e-09 4.8688690536e-11 6.3241396547e-10 6.5037465318e-09 6.7363444172e-11 
1.3076436588e-09 5.8948497996e-09 5.7335931905e-11 -1.2604094975e-10 3.2400386124e-09 3.4794856381e-11 -5.6185022992e-10 4.9909066146e-09 5.6880965857e-11 
1.4375368167e-10 1.747711206e-09 6.997267599e-12 -9.3684914287e-10 6.4829036089e-09 7.5180569841e-11 -8.8524435028e-10 6.2417600918e-09 7.2464691751e-11 
-1.1223863912e-09 7.1928718266e-09 8.3891179299e-11 -1.1136986128e-09 7.1967097269e-09 8.3868479842e-11 1.8972309e-10 9.9250531119e-10 -2.7924414046e-11 
1.4167043843e-10 1.9979184006e-09 -1.3654511474e-11 1.1695123171e-10 9.5783687539e-10 1.145114236e-12 -1.1050067139e-09 7.2006154895e-09 8.3825000373e-11 
-8.6780620871e-10 6.2494211257e-09 7.2099404609e-11 1.9063602779e-10 9.881645608e-10 3.4107243698e-11 1.5393933112e-10 2.0018770988e-09 4.3218765793e-11 
-4.5970417203e-10 4.5452492773e-09 5.1563648606e-11 -6.9814560505e-10 5.4955609266e-09 6.3425990673e-11 -7.4950049675e-10 5.7369400443e-09 6.6119670889e-11 
-8.8096725267e-12 2.7391501081e-09 1.4195862549e-11 -2.3943005803e-10 3.6717839807e-09 3.8278869924e-11 -3.4287124219e-10 4.1133260352e-09 4.593908765e-11 
1.9781877021e-11 2.4987927406e-09 2.2437007876e-11 -6.8061517946e-10 5.5033432147e-09 6.2845812263e-11 -4.4237377672e-10 4.552850825e-09 5.1385189999e-11 
-2.221867737e-10 3.6794384822e-09 4.2766396853e-11 8.3171030092e-12 2.7472572831e-09 4.2471814357e-11 1.8480090012e-09 -3.4857174131e-09 3.0037467763e-11 
3.3637338425e-09 -3.6573835094e-09 -1.9138022368e-10 4.1116840608e-09 -3.1681039771e-09 -3.2700254619e-10 4.0099886909e-09 -3.4176669536e-09 -3.6935874451e-10 
4.0431679711e-09 -3.782347638e-09 -2.6445149386e-10 4.0095410986e-09 -3.6326496405e-09 -3.9668907315e-10 4.2480739192e-09 -3.756083905e-09 -3.8718181727e-10 
2.8552528302e-09 -9.7661145566e-09 -8.9970192916e-10 -1.0860670578e-09 -5.1528126042e-05 5.4730747869e-07 2.4428493392e-08 -7.875326712e-06 9.4335286869e-08 
2.443252084e-08 -1.7243338754e-05 1.9197533649e-07 8.6275434763e-08 -1.7060461115e-06 2.805872196e-08 2.4429539893e-08 -1.0990958454e-05 1.2687948604e-07 
2.4432018735e-08 -1.4114904967e-05 1.5942588815e-07 2.4389976904e-08 -4.7732478152e-06 6.1697428332e-08 2.4432407275e-08 -3.9216535971e-05 4.1982421331e-07 
2.4435716427e-08 -4.5508599822e-05 4.8492277456e-07 2.2007209529e-08 -4.8618558963e-05 5.1710400561e-07 2.443257213e-08 -2.0375018506e-05 2.2452521296e-07 
2.4432569048e-08 -2.350970626e-05 2.5707505304e-07 2.443256853e-08 -2.664706542e-05 2.8962488767e-07 2.4432568412e-08 -2.9786761873e-05 3.2217472143e-07 
2.4432556402e-08 -3.2928461707e-05 3.547245604e-07 2.4432559557e-08 -3.6071831018e-05 3.8727438145e-07 2.4431465279e-08 -4.2362242585e-05 4.5237371499e-07 
-3.0135315149e-07 -4.6822682976e-07 -6.9117240568e-08 -8.861439887e-09 -5.6357756619e-09 -1.737463834e-10 -8.6532905995e-07 -4.3935366876e-05 4.7276842162e-07 
9.1372181136e-07 -3.7644051384e-05 3.9944428967e-07 9.0533662612e-07 -9.4319498033e-06 1.0664363216e-07 9.0768311526e-07 -1.2552187158e-05 1.3917862105e-07 
-8.5204069699e-07 -6.3222347491e-06 8.1739555906e-08 9.100399664e-07 -1.8808819282e-05 2.0418952519e-07 9.1088896564e-07 -2.1942041589e-05 2.3673256551e-07 
9.116443604e-07 -2.5078102851e-05 2.69274944e-07 9.1230536747e-07 -2.8216668394e-05 3.0181727473e-07 9.1287194841e-07 -3.135740427e-05 3.3435960115e-07 
9.143094546e-07 -4.7081921289e-05 4.9707119209e-07 -8.602181485e-07 -1.5678772267e-05 1.7976454492e-07 8.830819117e-07 -3.2351256126e-06 4.5616377635e-08 
-8.6447898395e-07 -3.4499976574e-05 3.7509701909e-07 9.1400461959e-07 -4.0789294806e-05 4.3198640805e-07 -8.4762909973e-07 -3.2375967596e-06 4.5605933746e-08 
-8.7094121496e-07 -9.4319603085e-06 1.1464309137e-07 -8.7973892896e-07 -4.0789295395e-05 4.4027931133e-07 9.236015436e-07 -1.5678774061e-05 1.7156964982e-07 
-8.8003665989e-07 -4.7081911933e-05 5.0539185073e-07 -8.7570876228e-07 -1.8808820535e-05 2.1237769666e-07 -8.7657170318e-07 -2.1942042718e-05 2.4493445865e-07 
-8.7858723024e-07 -3.1357404997e-05 3.4260679714e-07 9.2793224332e-07 -3.4499977174e-05 3.668346845e-07 -8.7331702497e-07 -1.255218982e-05 1.4719081665e-07 
-8.7733949691e-07 -2.5078103845e-05 2.7749187319e-07 -8.7801135219e-07 -2.8216669255e-05 3.1004933364e-07 9.1529454339e-07 -6.32221126e-06 7.4302194503e-08 
-8.7945106496e-07 -3.7644051923e-05 4.0772170623e-07 9.2879730196e-07 -4.3935374487e-05 4.6446016741e-07 -9.5232769362e-07 -5.0133971805e-05 5.3730125712e-07 
9.9087709334e-07 -5.0159051593e-05 5.2854209372e-07 5.6407947981e-07 -6.025536726e-07 1.6178997288e-07 1.1536738651e-08 -5.2442424084e-09 1.6072520987e-09 
5.9253961083e-07 -5.2921567537e-05 5.5896504707e-07 -8.954179545e-07 -5.2899726293e-05 5.656472903e-07 1.361336149e-07 -8.3314553913e-08 8.7604537399e-08 
-1.6397304984e-07 -1.130830205e-07 -1.0324859368e-07 2.6515213017e-09 -4.3785395238e-09 3.7310418098e-10 1.3884706306e-06 -5.1898365819e-05 5.4468632786e-07 
1.3784719443e-06 -4.7747718153e-06 5.6910555317e-08 1.4056514184e-06 -4.2362263387e-05 4.4598294381e-07 1.2626198649e-06 -1.7806835917e-06 7.3917770826e-08 
1.389588225e-06 -7.8756523398e-06 8.842931345e-08 1.3942147327e-06 -1.0991203077e-05 1.2072805743e-07 1.3986195463e-06 -1.7243435545e-05 1.8567356814e-07 
1.4000074723e-06 -2.0375105376e-05 2.1821592752e-07 1.4012533381e-06 -2.3509783499e-05 2.5075443777e-07 1.4023528297e-06 -2.6647133005e-05 2.8329264226e-07 
1.4033057376e-06 -2.9786819804e-05 3.1583082318e-07 1.404112051e-06 -3.2928509994e-05 3.4836900014e-07 1.4052848608e-06 -3.9216564729e-05 4.1344531657e-07 
1.4058831586e-06 -4.5508620451e-05 4.7852061913e-07 1.4060027731e-06 -4.8655285317e-05 5.1106297506e-07 -1.3480833319e-06 -1.4115046744e-05 1.6573219142e-07 
-1.3292178213e-06 -4.7752338318e-06 6.6949410009e-08 1.3969472091e-06 -1.4115046672e-05 1.5311953131e-07 1.4047717583e-06 -3.6071869627e-05 3.8090717299e-07 
-1.357010821e-06 -4.5508605848e-05 4.9132477044e-07 -1.3571207542e-06 -4.8655270885e-05 5.2388211208e-07 -1.1245730128e-06 -1.5467256998e-06 -3.9159574475e-08 
-1.3407357198e-06 -7.8756680297e-06 1.0026916024e-07 -1.3453548853e-06 -1.0991201597e-05 1.3303212568e-07 -1.3497544258e-06 -1.7243435523e-05 1.9827717476e-07 
-1.3511423672e-06 -2.0375105382e-05 2.3083450915e-07 -1.3523882351e-06 -2.3509783501e-05 2.633956697e-07 -1.3534877268e-06 -2.6647133006e-05 2.9595713333e-07 
-1.3544406348e-06 -2.9786819803e-05 3.2851862005e-07 -1.3552469365e-06 -3.2928509971e-05 3.6108010703e-07 -1.3559066377e-06 -3.6071869669e-05 3.9364159836e-07 
-1.3564197341e-06 -3.9216565041e-05 4.2620315486e-07 -1.356786669e-06 -4.2362260957e-05 4.587648169e-07 -1.2930737278e-06 -5.1560051681e-05 5.5363526207e-07 
-8.0930782303e-10 -3.7730534442e-09 1.9730339842e-10 -2.7738154061e-09 -5.2157477029e-09 1.0281034999e-09 2.9581059018e-08 -9.2959883319e-08 1.8011869312e-08 
6.1959581897e-09 -5.9314713784e-09 1.1060496443e-09 1.6648571999e-06 -5.3177326454e-05 5.5663194044e-07 -8.9237941842e-07 -7.3079770466e-07 -2.1348901519e-07 
-1.7788817238e-06 -5.3453161448e-05 5.7547396916e-07 -9.5330117749e-10 -2.5424253817e-09 -1.600974155e-11 -1.7381367245e-09 -4.4317297872e-09 7.2455278729e-10 
-1.8581665158e-09 -4.1987847732e-09 4.3661993256e-10 3.7247260366e-09 -3.9509645094e-09 -1.4100445258e-10 1.0850683926e-09 -3.7429272282e-09 5.2077506828e-10 
-3.2598547697e-09 -4.0866864409e-09 4.0808851775e-10 -4.5613339026e-09 -4.707330494e-09 1.8261082125e-10 -5.6345280751e-09 -5.159882519e-09 2.7186849177e-10 
-1.885487117e-07 -1.1304277438e-07 -1.1113917174e-07 -4.2652720617e-07 -2.8602981792e-07 -2.0623323233e-07 -8.8006778866e-07 -6.4503426563e-07 -2.5941380435e-07 
-1.3216464137e-06 -1.0466326581e-06 -2.0414605697e-07 -4.4326101878e-07 -3.3935909529e-07 -1.8664750412e-07 3.7685433821e-09 -3.6823433298e-09 -2.9185816562e-10 
4.0104778271e-07 -2.5749674573e-07 2.0665844524e-07 1.5986714039e-07 -9.0536629536e-08 9.7550890202e-08 1.1501797087e-06 -9.911681749e-07 1.9095821755e-07 
7.4964156135e-07 -5.6423599685e-07 2.4359626388e-07 3.1954221453e-07 -2.4790701284e-07 1.5408445322e-07 1.973443971e-06 -4.275554973e-05 4.4742248513e-07 
1.973340934e-06 -4.1969027401e-05 4.3929034908e-07 1.7351133053e-06 -4.4328696713e-05 4.6479251702e-07 1.7350411909e-06 -4.3542104145e-05 4.5665955847e-07 
1.1672378153e-06 -4.3148801189e-05 4.5522090718e-07 2.1033460989e-06 -5.3669724752e-05 5.5968923903e-07 2.103343075e-06 -5.2883038532e-05 5.5155212211e-07 
1.4739987808e-06 -5.3669718577e-05 5.6261110575e-07 -2.1359087866e-06 -5.380762908e-05 5.8079828957e-07 -1.5065612518e-06 -5.380762923e-05 5.7787645726e-07 
-2.135908498e-06 -5.3020943115e-05 5.7266050646e-07 -1.6788732048e-06 -4.3542091834e-05 4.7246553184e-07 -1.6789420243e-06 -4.4328680275e-05 4.8060662127e-07 
-1.9244740427e-06 -4.1969026182e-05 4.5732050469e-07 -1.9245772249e-06 -4.2755543644e-05 4.6546253533e-07 -1.1110722751e-06 -4.3148795049e-05 4.6576687341e-07 
-4.4674288659e-09 -4.4169512632e-09 -4.5194347451e-09 -4.1026297701e-08 -1.9716918451e-08 -3.4024971212e-08 -3.961505702e-08 -1.7397850119e-08 -3.9610691334e-08 
-7.1807335037e-10 -3.6222465023e-09 1.0236545066e-10 -1.026874406e-09 -3.4747049501e-09 -2.5777041918e-10 -7.1096277254e-10 -3.3332458171e-09 -1.4553347556e-09 
-1.420779501e-09 -4.3398799645e-09 4.670513095e-10 -8.5203255457e-10 -2.8386242982e-09 7.3080033339e-12 -7.2537753935e-10 -3.3595312686e-09 6.6687624121e-11 
-8.0122423491e-10 -3.5201111726e-09 1.0275180521e-10 -1.2331810398e-09 -3.8974471773e-09 2.3780680114e-10 4.8311610012e-09 -4.8385872659e-09 4.4911304193e-11 
5.2851191437e-09 -5.0486473476e-09 1.2930248344e-11 6.6992194314e-09 -4.2295272877e-09 1.7043400896e-10 7.8478958366e-09 -4.8149734426e-09 9.2265464577e-10 
8.5664844542e-09 -4.9695037508e-09 6.5093163314e-10 3.5652737168e-09 -3.9249428474e-09 -3.3873380721e-10 4.0303911801e-09 -4.3079630432e-09 -2.6403746192e-10 
4.7335846439e-09 -3.4197013864e-09 1.396543154e-09 2.7495840798e-08 -1.5471109765e-08 2.0344107251e-08 4.4701077281e-08 -2.1356174674e-08 3.3720263846e-08 
3.9281302327e-08 -1.3237472874e-08 3.6994773324e-08 1.7969302521e-06 -2.1620020461e-06 8.8083944135e-08 1.5906107953e-06 -1.5419441003e-06 1.4520278925e-07 
9.3944277678e-07 -1.145803175e-06 1.2115471553e-07 1.6760625916e-06 -3.6219958514e-06 5.3438920272e-08 1.6390749031e-06 -2.8689373893e-06 6.2006299862e-08 
1.1041661552e-06 -2.4836022129e-06 5.7669125456e-08 1.9391676568e-06 -5.162412198e-06 5.9876004182e-08 1.9336791027e-06 -4.390128259e-06 5.5114553977e-08 
1.1311633781e-06 -4.001439397e-06 5.1573840053e-08 1.711700489e-06 -6.7107675341e-06 7.5440657917e-08 1.708557206e-06 -5.9354855809e-06 6.7891067222e-08 
1.148071378e-06 -5.5473834994e-06 6.5838388001e-08 1.9516209025e-06 -8.2648524757e-06 9.0110201581e-08 1.9494399683e-06 -7.4876056456e-06 8.2588951575e-08 
1.1522216169e-06 -7.0984589065e-06 8.1381828702e-08 1.7117385363e-06 -9.8217516908e-06 1.073278104e-07 1.7102377642e-06 -9.0428666439e-06 9.9225086594e-08 
1.1476841659e-06 -8.6534386466e-06 9.7483661615e-08 1.95808454e-06 -1.1381427324e-05 1.2250636036e-07 1.9570716135e-06 -1.0601403634e-05 1.1421844963e-07 
1.1496592452e-06 -1.0211271574e-05 1.1366565338e-07 1.7159263651e-06 -1.2942879201e-05 1.3954328822e-07 1.714938757e-06 -1.2161852993e-05 1.3153669105e-07 
1.151107297e-06 -1.1771436982e-05 1.2998819946e-07 1.9615961298e-06 -1.450608924e-05 1.5456973042e-07 1.9607782142e-06 -1.37243103e-05 1.4656455163e-07 
1.1522513477e-06 -1.3333459134e-05 1.4614529767e-07 1.7255231938e-06 -1.6069969041e-05 1.7195870556e-07 1.725044874e-06 -1.5287897903e-05 1.6381373539e-07 
1.1603608252e-06 -1.4896805462e-05 1.6234904498e-07 1.9637246893e-06 -1.7634812184e-05 1.8715183421e-07 1.9632115556e-06 -1.6852304392e-05 1.7901473182e-07 
1.161054652e-06 -1.6460998803e-05 1.7862258885e-07 1.7200339184e-06 -1.9200405502e-05 2.0454384412e-07 1.7196054667e-06 -1.841748529e-05 1.9640896259e-07 
1.1543960599e-06 -1.8026021859e-05 1.9493194966e-07 1.9656607181e-06 -2.0766867608e-05 2.1968932482e-07 1.9651955561e-06 -1.9983562278e-05 2.1155591603e-07 
1.1549664372e-06 -1.9591863586e-05 2.1120305871e-07 1.7216374127e-06 -2.233399052e-05 2.3708028536e-07 1.7212533294e-06 -2.1550318487e-05 2.2894633111e-07 
1.1555083619e-06 -2.1158478831e-05 2.2747401855e-07 1.9673929184e-06 -2.3901888399e-05 2.5222303556e-07 1.9669792202e-06 -2.3117873428e-05 2.4408989076e-07 
1.1560204544e-06 -2.2725824607e-05 2.4374378971e-07 1.7230609391e-06 -2.5470372411e-05 2.6961582376e-07 1.7227219932e-06 -2.4686032543e-05 2.6148194171e-07 
1.1565024924e-06 -2.4293859271e-05 2.6001441008e-07 1.9689184871e-06 -2.7039538763e-05 2.8475644884e-07 1.9685564848e-06 -2.6254897724e-05 2.7662332449e-07 
1.1569544186e-06 -2.5862540732e-05 2.7628407856e-07 1.724303753e-06 -2.8609216831e-05 3.0215129197e-07 1.7240099961e-06 -2.7824292641e-05 2.9401741548e-07 
1.1573762219e-06 -2.7431827536e-05 2.9255467365e-07 1.9702372139e-06 -3.0179484676e-05 3.1728983928e-07 1.9699269251e-06 -2.9394301054e-05 3.0915671655e-07 
1.1577678975e-06 -2.9001677643e-05 3.0882433415e-07 1.7253657976e-06 -3.1750189847e-05 3.3468675411e-07 1.7251172339e-06 -3.0964764811e-05 3.2655287843e-07 
1.1581294448e-06 -3.0572049613e-05 3.2509492709e-07 1.9713490673e-06 -3.3321392228e-05 3.4982323006e-07 1.971090508e-06 -3.2535749507e-05 3.4169010496e-07 
1.1584608646e-06 -3.2142901413e-05 3.4136458594e-07 1.7335417668e-06 -3.4892958107e-05 3.6718857742e-07 1.7333375261e-06 -3.410711573e-05 3.590547239e-07 
1.1660553804e-06 -3.3714191994e-05 3.5760156075e-07 1.972254087e-06 -3.6464927523e-05 3.8235660492e-07 1.9720472129e-06 -3.5678909169e-05 3.7422347836e-07 
1.1663282891e-06 -3.5285878492e-05 3.7387120755e-07 1.726947575e-06 -3.8037185969e-05 3.9975767027e-07 1.7267893968e-06 -3.7251009726e-05 3.9162379664e-07 
1.1592743523e-06 -3.6857919563e-05 3.9017543883e-07 1.9729522904e-06 -3.9609756459e-05 4.1489001709e-07 1.9727971287e-06 -3.8823445995e-05 4.0675686602e-07 
1.1594852491e-06 -3.8430273801e-05 4.0644508635e-07 1.7274675361e-06 -4.1182541458e-05 4.3229308113e-07 1.7273544184e-06 -4.0396114596e-05 4.2415923194e-07 
1.1596658972e-06 -4.0002899422e-05 4.2271561374e-07 1.1598160413e-06 -4.1575754922e-05 4.3898510794e-07 1.973743387e-06 -4.5901957026e-05 4.7995583911e-07 
1.9736853025e-06 -4.5115320554e-05 4.7182203823e-07 1.1673344138e-06 -4.4721986204e-05 4.7149063419e-07 1.7280022411e-06 -4.7475271755e-05 4.9736567193e-07 
1.7279668834e-06 -4.6688603864e-05 4.8923034769e-07 1.1601046872e-06 -4.6295262404e-05 4.8779556485e-07 1.9738888162e-06 -4.9048637955e-05 5.1249585454e-07 
1.9738636724e-06 -4.8261953926e-05 5.0436069757e-07 1.1601540185e-06 -4.7868599148e-05 5.0406733611e-07 1.7663414671e-06 -5.0587211031e-05 5.2937127749e-07 
1.7663282784e-06 -4.980051943e-05 5.2123509087e-07 1.1984432543e-06 -4.9407166451e-05 5.1980242107e-07 1.965149206e-06 -5.2243558441e-05 5.455794663e-07 
1.9651427096e-06 -5.1456868036e-05 5.374428575e-07 1.1896741096e-06 -5.1028709072e-05 5.3661431426e-07 1.5266643063e-06 -5.2537847058e-05 5.5065915953e-07 
3.0849486877e-07 -5.354183487e-05 5.6669978724e-07 9.3783960907e-07 -5.3541839304e-05 5.6377776533e-07 1.1286978015e-06 -5.3049446673e-05 5.5779850724e-07 
-1.0648293892e-06 -5.3530912348e-05 5.7296306941e-07 -4.354845005e-07 -5.3530914056e-05 5.7004112602e-07 -1.5143903005e-07 -5.2910645984e-05 5.6230617568e-07 
-1.3371493409e-06 -5.3176443819e-05 5.7056062754e-07 -1.9248130892e-06 -4.5115300467e-05 4.8988566412e-07 -1.9248692136e-06 -4.590193648e-05 4.9802695267e-07 
-1.1111637971e-06 -4.4721974696e-05 4.8204618544e-07 -1.68639266e-06 -4.6688585985e-05 5.0506122175e-07 -1.6864258295e-06 -4.7475253905e-05 5.132008743e-07 
-1.1185319796e-06 -4.6295250427e-05 4.9835860553e-07 -1.9249827386e-06 -4.8261933575e-05 5.2244688684e-07 -1.9250054928e-06 -4.9048617599e-05 5.3058662397e-07 
-1.1185765689e-06 -4.7868587185e-05 5.1463668533e-07 -1.7226110815e-06 -4.9787966591e-05 5.3729651614e-07 -1.722622025e-06 -5.0574658131e-05 5.4543520714e-07 
-1.1547270789e-06 -4.9394619598e-05 5.3059184117e-07 -1.8929988126e-06 -5.1287697924e-05 5.536027094e-07 -1.8930036429e-06 -5.2074388631e-05 5.6174097739e-07 
-1.1227008725e-06 -5.0847011884e-05 5.4546812222e-07 -1.6941749891e-06 -5.2744224734e-05 5.6774715991e-07 -1.0942467086e-06 -5.2229889624e-05 5.5964135577e-07 
-1.497932492e-06 -1.416657442e-06 -1.149604978e-07 -1.6945343924e-06 -2.0455600517e-06 -3.1028075076e-08 -1.0850928532e-06 -1.0697170832e-06 -1.2556828285e-07 
-1.6045616056e-06 -2.8699700146e-06 2.2176104732e-08 -1.6378940909e-06 -3.6229559301e-06 4.7402389011e-08 -1.0338863641e-06 -2.3541184327e-06 1.44231254e-08 
-1.8855973883e-06 -4.3899109258e-06 6.0637175985e-08 -1.8901416139e-06 -5.1626967617e-06 7.2019896694e-08 -1.0892816293e-06 -4.0030632707e-06 5.6139561514e-08 
-1.6524137085e-06 -5.9355966416e-06 8.0102011059e-08 -1.6556197574e-06 -6.7107954974e-06 8.8815682871e-08 -1.0919012067e-06 -5.5475510122e-06 7.4015531999e-08 
-1.9005924822e-06 -7.4876195751e-06 9.7982024652e-08 -1.9027858806e-06 -8.2648670564e-06 1.0673297192e-07 -1.0961583356e-06 -7.0984766541e-06 9.099499874e-08 
-1.6686189699e-06 -9.0428825474e-06 1.1390688326e-07 -1.6701163049e-06 -9.8217622387e-06 1.2206654801e-07 -1.106054982e-06 -8.6534526109e-06 1.0750551481e-07 
-1.9082080464e-06 -1.0601404154e-05 1.3140765378e-07 -1.9092254203e-06 -1.1381425446e-05 1.3938981706e-07 -1.1080378196e-06 -1.021127659e-05 1.2385758037e-07 
-1.6733252717e-06 -1.216185525e-05 1.4666327686e-07 -1.6743144007e-06 -1.2942881556e-05 1.5493043074e-07 -1.1094912261e-06 -1.1771438396e-05 1.400753175e-07 
-1.911914219e-06 -1.3724309063e-05 1.6415015145e-07 -1.9127301725e-06 -1.4506090539e-05 1.7241919537e-07 -1.1106397986e-06 -1.3333460522e-05 1.5646549901e-07 
-1.6689210502e-06 -1.5287896172e-05 1.7941636338e-07 -1.6693974738e-06 -1.6069967453e-05 1.8754636163e-07 -1.1042391011e-06 -1.4896804189e-05 1.7274372312e-07 
-1.9143463777e-06 -1.6852304292e-05 1.9679858136e-07 -1.9148595409e-06 -1.7634812161e-05 2.0493640654e-07 -1.1049283401e-06 -1.6460997764e-05 1.8901991352e-07 
-1.6780065716e-06 -1.8417486493e-05 2.1198749844e-07 -1.678436869e-06 -1.9200406689e-05 2.2012755199e-07 -1.1127960927e-06 -1.8026022662e-05 2.0532702715e-07 
-1.9163304307e-06 -1.9983562291e-05 2.2935707635e-07 -1.9167955923e-06 -2.076686761e-05 2.3749857218e-07 -1.1133701482e-06 -1.9591864371e-05 2.2160577716e-07 
-1.6796615117e-06 -2.1550319579e-05 2.4454985141e-07 -1.6800472411e-06 -2.2333991581e-05 2.5269083497e-07 -1.1139155586e-06 -2.1158479569e-05 2.3788470546e-07 
-1.9181140923e-06 -2.3117873435e-05 2.619227646e-07 -1.9185277903e-06 -2.3901888396e-05 2.7006452607e-07 -1.1144309457e-06 -2.2725825307e-05 2.541647826e-07 
-1.6811364701e-06 -2.4686033504e-05 2.7711396888e-07 -1.6814768688e-06 -2.5470373343e-05 2.8525502522e-07 -1.1149160835e-06 -2.429385992e-05 2.7044404597e-07 
-1.9196913565e-06 -2.6254897729e-05 2.94488998e-07 -1.9200533587e-06 -2.7039538758e-05 3.026307802e-07 -1.1153709155e-06 -2.5862541347e-05 2.867242241e-07 
-1.6824299938e-06 -2.7824293475e-05 3.0967822439e-07 -1.6827250098e-06 -2.8609217637e-05 3.1781928635e-07 -1.1157954308e-06 -2.74318281e-05 3.0300351211e-07 
-1.9210617966e-06 -2.9394301059e-05 3.2705527377e-07 -1.9213720856e-06 -3.0179484671e-05 3.3519705755e-07 -1.1161896249e-06 -2.9001678173e-05 3.1928369786e-07 
-1.683541978e-06 -3.0964765518e-05 3.4224249035e-07 -1.6837916071e-06 -3.1750190523e-05 3.5038355249e-07 -1.1165534964e-06 -3.0572050092e-05 3.3556298761e-07 
-1.9222253803e-06 -3.2535749502e-05 3.5962155297e-07 -1.9224839687e-06 -3.332139223e-05 3.677633399e-07 -1.116887044e-06 -3.2142901852e-05 3.5184317309e-07 
-1.6771785848e-06 -3.4107115149e-05 3.747731425e-07 -1.6773819545e-06 -3.4892957557e-05 3.8291418493e-07 -1.1098970435e-06 -3.3714191593e-05 3.6808884559e-07 
-1.9231821173e-06 -3.5678909185e-05 3.9218782792e-07 -1.9233889596e-06 -3.6464927557e-05 4.0032962454e-07 -1.1101681968e-06 -3.5285878141e-05 3.843690209e-07 
-1.6852212896e-06 -3.7251010266e-05 4.0737104174e-07 -1.6853801275e-06 -3.8037186572e-05 4.1551212297e-07 -1.1177057505e-06 -3.6857919924e-05 4.0068193898e-07 
-1.9239319096e-06 -3.88234463e-05 4.2475418512e-07 -1.9240870009e-06 -3.9609756889e-05 4.3289595838e-07 -1.1179180305e-06 -3.8430274262e-05 4.1696214342e-07 
-1.6857885237e-06 -4.0396115263e-05 4.3993545527e-07 -1.6859018098e-06 -4.1182541964e-05 4.4807652909e-07 -1.118100014e-06 -4.0002899899e-05 4.3324148773e-07 
-1.1182518242e-06 -4.1575754929e-05 4.4952143177e-07 -9.0533697343e-09 -5.3525136175e-09 -1.5034946847e-09 -3.3023077721e-08 -2.3595348383e-08 -3.4976008382e-08 
2.7920965024e-09 -5.2707692288e-09 5.4634781917e-10 1.3064689393e-08 -5.2306006889e-09 1.3109607357e-09 3.4416647626e-08 -1.7823647965e-08 3.266066257e-08 
1.0112312596e-07 -7.2589305221e-08 5.5272403822e-08 9.8646360403e-09 -1.7051777965e-08 5.3011331808e-09 -9.008970604e-08 -7.9502546976e-08 -4.2242881955e-08 
-4.7670957101e-07 -5.0831048119e-05 5.4230452625e-07 1.927490448e-08 -5.014650891e-05 5.3292171256e-07 4.9489812368e-07 -5.0843588037e-05 5.3792471451e-07 
-6.4707899699e-07 -5.1544088007e-05 5.504713147e-07 6.9369104651e-07 -5.1713245102e-05 5.4599695127e-07 2.9572618153e-07 -5.2224847563e-05 5.5313634404e-07 
-4.4825087021e-07 -5.2213926709e-05 5.564773572e-07 9.9050563346e-07 -5.2409966822e-05 5.518256498e-07 4.644612381e-07 -8.6532584105e-06 1.0050006211e-07 
1.7199972588e-08 -9.4318343878e-06 1.106421268e-07 -4.2282644091e-07 -8.653262644e-06 1.0448183834e-07 7.0684264088e-07 -7.8754092837e-06 9.135334906e-08 
-4.1448641016e-07 -7.0982068429e-06 8.805302671e-08 3.1613881106e-08 -6.3219738136e-06 7.8018587031e-08 4.7054960048e-07 -7.0981956534e-06 8.4306598185e-08 
-6.5798552638e-07 -7.8754171848e-06 9.7327057535e-08 4.6712206791e-07 -1.8025968262e-05 1.9808237572e-07 1.7165677033e-08 -1.8808781366e-05 2.0828360418e-07 
-4.2552201565e-07 -1.8025968572e-05 2.0217657113e-07 7.1152281718e-07 -1.7243362838e-05 1.888239329e-07 -4.1802063623e-07 -1.6460936042e-05 1.8586695785e-07 
3.1691321119e-08 -1.5678715825e-05 1.7566707459e-07 4.741468377e-07 -1.6460936505e-05 1.8177547114e-07 -6.6265772629e-07 -1.7243362826e-05 1.9512675329e-07 
-1.6535186983e-07 -1.0170884544e-06 -2.5724170137e-09 1.4338613833e-07 -4.870341583e-07 4.6691847798e-08 4.5852504484e-07 -1.0538153264e-06 6.8289764655e-08 
-5.4455781755e-07 -1.6021889577e-06 -1.4484225556e-10 -6.8123087665e-07 -9.677351061e-07 -6.5436853961e-08 4.7470483648e-07 -2.4553478699e-06 3.9881976443e-08 
1.8003411161e-08 -3.2341292545e-06 4.5037534658e-08 -3.6810327833e-07 -2.4554847292e-06 3.4040542298e-08 6.9274068994e-07 -1.7277257134e-06 4.5679820061e-08 
4.6522949228e-07 -1.0211126001e-05 1.1677287812e-07 -4.2360755692e-07 -1.0211128915e-05 1.2074863769e-07 7.0927578227e-07 -1.099102241e-05 1.2381556378e-07 
4.6581723965e-07 -1.1771326887e-05 1.3303679196e-07 1.7184004469e-08 -1.2552116709e-05 1.4318456416e-07 -4.2419983823e-07 -1.1771327331e-05 1.3702661621e-07 
-6.6041717615e-07 -1.0991022101e-05 1.2994399652e-07 4.6625625463e-07 -1.333336414e-05 1.4928398429e-07 -4.2464391144e-07 -1.3333364857e-05 1.5332670591e-07 
7.1065824963e-07 -1.4114942182e-05 1.562789914e-07 -4.1774483449e-07 -1.4896719407e-05 1.6959706732e-07 4.7386592189e-07 -1.489671983e-05 1.6549574314e-07 
-6.6179416537e-07 -1.4114942279e-05 1.6257285382e-07 -4.1285650961e-07 -5.5470235095e-06 7.1758645503e-08 4.6885411748e-07 -5.5470051116e-06 6.797293927e-08 
-6.5188031865e-07 -4.7739034461e-06 6.4324192875e-08 4.5726584757e-07 -4.00111448e-06 5.3180472721e-08 -4.1537577689e-07 -4.001920441e-06 5.4022688043e-08 
7.0070153745e-07 -4.7736681218e-06 5.9216079271e-08 4.6911598982e-07 -3.8430255883e-05 4.0963387995e-07 -4.2754876435e-07 -3.8430256087e-05 4.1377333448e-07 
1.7135440614e-08 -3.7644037395e-05 4.0358298888e-07 7.1485501169e-07 -3.921654309e-05 4.1663478334e-07 4.6918646408e-07 -4.0002884412e-05 4.2590575487e-07 
1.7132547442e-08 -4.0789284983e-05 4.3613282739e-07 -4.2762080488e-07 -4.0002884687e-05 4.3005130634e-07 -6.6599016023e-07 -3.9216543296e-05 4.2301365747e-07 
-4.2046343975e-07 -4.4721969065e-05 4.7884615257e-07 3.1733212934e-08 -4.3935363255e-05 4.6861455804e-07 4.7663317942e-07 -4.4721973609e-05 4.7469050153e-07 
-6.6628433303e-07 -4.5508599398e-05 4.8812366446e-07 4.6936139472e-07 -4.6295252027e-05 4.9099744628e-07 1.7137099188e-08 -4.7081911971e-05 5.0123130672e-07 
-4.2778884376e-07 -4.6295247222e-05 4.9515670998e-07 7.1515603945e-07 -4.5508606675e-05 4.8172187338e-07 4.6816632969e-07 -4.7850234548e-05 5.0708732469e-07 
-4.2902276063e-07 -4.7850229878e-05 5.1124834079e-07 7.140025846e-07 -4.8636920277e-05 5.1408361476e-07 -6.6755451681e-07 -4.8636913149e-05 5.2049304985e-07 
-4.6515577822e-07 -4.9376263308e-05 5.2720232339e-07 5.0643720528e-07 -4.9388803034e-05 5.2282323961e-07 4.6734574888e-07 -1.9591812529e-05 2.1435722206e-07 
-4.2574934426e-07 -1.9591812836e-05 2.1845161468e-07 7.1221651358e-07 -2.037504023e-05 2.2137059943e-07 4.6755797691e-07 -2.1158430547e-05 2.3062919185e-07 
1.7158709519e-08 -2.1942007545e-05 2.4083351123e-07 -4.2596506044e-07 -2.115843084e-05 2.3472951766e-07 -6.6335140683e-07 -2.0375040233e-05 2.276798291e-07 
4.677586147e-07 -2.2725779004e-05 2.4690349606e-07 -4.2616899418e-07 -2.2725779278e-05 2.5100508574e-07 7.1283943037e-07 -2.350972557e-05 2.5391474703e-07 
4.6794746033e-07 -2.4293816501e-05 2.6317532242e-07 1.7152509527e-08 -2.5078072809e-05 2.7338340849e-07 -4.2636094028e-07 -2.4293816759e-05 2.6728312235e-07 
-6.6397432937e-07 -2.3509725571e-05 2.6023535943e-07 4.6812451473e-07 -2.5862500652e-05 2.7944959113e-07 -4.2654090076e-07 -2.5862500892e-05 2.8355872214e-07 
7.1338917522e-07 -2.6647082316e-05 2.8645876508e-07 4.6828976622e-07 -2.7431790289e-05 2.9572140675e-07 1.7147085364e-08 -2.8216642357e-05 3.0593330413e-07 
-4.2670886441e-07 -2.7431790514e-05 2.9983676809e-07 -6.6452407503e-07 -2.6647082317e-05 2.9279101033e-07 4.6844321494e-07 -2.9001643086e-05 3.1199567249e-07 
-4.2686483155e-07 -2.9001643292e-05 3.1611237019e-07 7.1386562903e-07 -2.9786776356e-05 3.1900277225e-07 4.6858486014e-07 -3.0572017889e-05 3.2826748698e-07 
1.7142436798e-08 -3.1357382238e-05 3.3848319934e-07 -4.2700880107e-07 -3.057201808e-05 3.3239041657e-07 -6.6500052906e-07 -2.9786776356e-05 3.2534667066e-07 
4.6871470044e-07 -3.2142872376e-05 3.4454175277e-07 -4.271407743e-07 -3.214287255e-05 3.486660192e-07 7.1426879346e-07 -3.2928473776e-05 3.5154678274e-07 
-4.1996762428e-07 -3.3714165398e-05 3.6491045522e-07 4.7612586254e-07 -3.3714165551e-05 3.6077995654e-07 3.1726553629e-08 -3.449995855e-05 3.7096584699e-07 
-6.654036722e-07 -3.2928473775e-05 3.5790233609e-07 4.6903340058e-07 -3.6857898903e-05 3.9335965354e-07 -4.2746470944e-07 -3.685789904e-05 3.9749771299e-07 
7.1459864358e-07 -3.6071840671e-05 3.8409077538e-07 -4.2007385449e-07 -3.5285854623e-05 3.8118602538e-07 4.7623384334e-07 -3.5285854764e-05 3.7705418914e-07 
-6.6573353047e-07 -3.6071840685e-05 3.9045798565e-07 -4.2042857294e-07 -4.3148786487e-05 4.625701433e-07 4.7659296761e-07 -4.3148788812e-05 4.5841771511e-07 
-6.6617449226e-07 -4.2362246732e-05 4.5556937284e-07 4.6924505775e-07 -4.1575742442e-05 4.4217966132e-07 -4.2768155106e-07 -4.1575742281e-05 4.4632705696e-07 
7.1503710986e-07 -4.2362248067e-05 4.4917845463e-07 -8.0782475785e-08 -2.2501917491e-07 -2.9627822755e-08 2.0280043767e-07 -2.6276241542e-07 7.9441305156e-08 
-2.593277333e-07 -2.3575217359e-07 -1.1378459512e-07 -5.9020454863e-07 -5.7955824585e-07 -1.5432102866e-07 -2.464776758e-06 -6.3214890822e-06 8.9399771607e-08 
-2.4541668537e-06 -4.7758240161e-06 7.2089694574e-08 -2.4014506576e-06 -3.2633740551e-06 5.6259219669e-08 -2.1880564061e-06 -1.9656557334e-06 3.7469670208e-08 
-2.4716849441e-06 -7.873554356e-06 1.0609616563e-07 -2.4802638942e-06 -1.0988122254e-05 1.3844333439e-07 -2.4833813421e-06 -1.2548982752e-05 1.5474160404e-07 
-2.4854262374e-06 -1.4111531708e-05 1.7127098182e-07 -2.4867295573e-06 -1.5675236951e-05 1.8741251867e-07 -2.4880886316e-06 -1.7239820913e-05 2.0366937207e-07 
-2.4893929934e-06 -1.8805247017e-05 2.1993880606e-07 -2.4906286462e-06 -2.0371467231e-05 2.3621219861e-07 -2.4917972551e-06 -2.1938438707e-05 2.5248670036e-07 
-2.492899114e-06 -2.3506119689e-05 2.6876150215e-07 -2.4939341921e-06 -2.5074468464e-05 2.8503638713e-07 -2.4949024924e-06 -2.6643443296e-05 3.0131129521e-07 
-2.4958040129e-06 -2.8213002447e-05 3.1758620975e-07 -2.4966387542e-06 -2.9783104179e-05 3.3386112621e-07 -2.4974067169e-06 -3.1353706755e-05 3.5013604337e-07 
-2.4981079034e-06 -3.2924768442e-05 3.6641096094e-07 -2.4987422974e-06 -3.44962475e-05 3.8268587442e-07 -2.4993099269e-06 -3.6068102198e-05 3.9896080188e-07 
-2.4998107715e-06 -3.7640290822e-05 4.1523575456e-07 -2.5002447315e-06 -3.9212771702e-05 4.3151071429e-07 -2.5005941877e-06 -4.0703617933e-05 4.4693823166e-07 
-2.4765104501e-06 -9.4296199649e-06 1.2257778351e-07 -1.3228998434e-06 -9.885215437e-07 -1.2339331208e-07 -1.3363839898e-06 -9.8178967795e-07 1.6217448595e-07 
-2.4965970762e-06 -4.2360374758e-05 4.6403954996e-07 -2.5052221381e-06 -4.2356503548e-05 4.6408183029e-07 -1.8031528013e-06 -1.4130851334e-06 2.8478374752e-08 
-2.5007690407e-06 -4.1571948822e-05 4.5592351561e-07 -2.2475811566e-06 -2.2615383378e-06 9.0950462227e-09 -2.0017713259e-06 -1.6695472448e-06 -5.7970596317e-08 
-2.0162252337e-06 -1.6640004312e-06 1.2472982306e-07 -2.4169649072e-06 -3.6375387459e-06 5.299680662e-08 -2.3554526744e-06 -2.9092100333e-06 2.9418807071e-08 
-2.3172736371e-06 -2.598726223e-06 4.8080953667e-08 -2.4536953761e-06 -5.1625381226e-06 7.4327365396e-08 -2.4434518378e-06 -4.3946681531e-06 6.4906092867e-08 
-2.4366913769e-06 -4.0131445943e-06 6.5897937464e-08 -2.4622566427e-06 -6.7108311002e-06 9.2642451219e-08 -2.4579164575e-06 -5.9362272835e-06 8.3830467076e-08 
-2.4603011914e-06 -5.5476293928e-06 8.0554544636e-08 -2.4686057984e-06 -8.2639342536e-06 1.0951788529e-07 -2.465793759e-06 -7.4869459778e-06 1.0109233331e-07 
-2.4684464646e-06 -7.0969617159e-06 9.7817042925e-08 -2.4733330994e-06 -9.8209537386e-06 1.2600788741e-07 -2.4709775059e-06 -9.042093705e-06 1.1780074904e-07 
-2.4741926942e-06 -8.6510161341e-06 1.1427468492e-07 -2.476795733e-06 -1.1380082978e-05 1.4206923593e-07 -2.4752513969e-06 -1.0600130408e-05 1.3405565412e-07 
-2.478564435e-06 -1.0208512399e-05 1.3055157949e-07 -2.4795221978e-06 -1.2941433404e-05 1.5863048951e-07 -2.4781599806e-06 -1.2160473954e-05 1.5028497005e-07 
-2.4818531719e-06 -1.1768419173e-05 1.4654637863e-07 -2.4815396672e-06 -1.4504314064e-05 1.7511345568e-07 -2.4805493686e-06 -1.3722792787e-05 1.6693078285e-07 
-2.4843939685e-06 -1.3330071905e-05 1.629862127e-07 -2.482763802e-06 -1.6068233324e-05 1.9136723648e-07 -2.4820881062e-06 -1.5286169761e-05 1.8326227381e-07 
-2.4860979345e-06 -1.4893298678e-05 1.7929795902e-07 -2.4841102324e-06 -1.7633028277e-05 2.0763082274e-07 -2.4834430285e-06 -1.6850523235e-05 1.9949636296e-07 
-2.4874136217e-06 -1.6457422596e-05 1.9553861476e-07 -2.4853949302e-06 -1.9198657012e-05 2.239079427e-07 -2.4847607267e-06 -1.8415741758e-05 2.157681672e-07 
-2.4887483655e-06 -1.8022431846e-05 2.1180296738e-07 -2.4866137655e-06 -2.0765069056e-05 2.4018634279e-07 -2.4860128635e-06 -1.9981767863e-05 2.3204703184e-07 
-2.4900180431e-06 -1.9588260598e-05 2.2807571198e-07 -2.4877652383e-06 -2.2332222364e-05 2.5646694991e-07 -2.4871976617e-06 -2.1548555626e-05 2.4832598161e-07 
-2.4912201376e-06 -2.1154861671e-05 2.4434901287e-07 -2.4888507157e-06 -2.3900074473e-05 2.7274639666e-07 -2.488316491e-06 -2.3116063711e-05 2.6460672884e-07 
-2.492355373e-06 -2.2722193116e-05 2.6062447248e-07 -2.4898687495e-06 -2.5468584268e-05 2.8902729e-07 -2.4893679081e-06 -2.4684249726e-05 2.8088621826e-07 
-2.4934238418e-06 -2.4290213211e-05 2.7689855522e-07 -2.4908206941e-06 -2.7037709374e-05 3.0530681776e-07 -2.4903532397e-06 -2.625307255e-05 2.9716712252e-07 
-2.4944255311e-06 -2.5858880232e-05 2.9317422561e-07 -2.4917051778e-06 -2.8607408679e-05 3.2158773332e-07 -2.4912711126e-06 -2.7822489817e-05 3.1344665358e-07 
-2.4953604415e-06 -2.742815244e-05 3.0944836665e-07 -2.4925235655e-06 -3.0177639818e-05 3.3786726747e-07 -2.4921228897e-06 -2.9392460412e-05 3.2972757004e-07 
-2.4962285724e-06 -2.8997988099e-05 3.257240534e-07 -2.4932744925e-06 -3.174836168e-05 3.5414818432e-07 -2.4929072053e-06 -3.0962941974e-05 3.4600710443e-07 
-2.4970299242e-06 -3.056834547e-05 3.4199819924e-07 -2.4939593253e-06 -3.3319531909e-05 3.7042771969e-07 -2.4936254291e-06 -3.2533893391e-05 3.6228802281e-07 
-2.4977644985e-06 -3.2139182818e-05 3.5827388747e-07 -2.4945766854e-06 -3.4891109378e-05 3.8670863671e-07 -2.4942761768e-06 -3.4105272309e-05 3.7856755145e-07 
-2.4984322913e-06 -3.3710458413e-05 3.7454803256e-07 -2.4951279692e-06 -3.6463051761e-05 4.0298818359e-07 -2.4948608481e-06 -3.56770376e-05 3.948484762e-07 
-2.4990333065e-06 -3.5282130501e-05 3.9082372145e-07 -2.4956117503e-06 -3.8035317945e-05 4.1926914365e-07 -2.4953780445e-06 -3.7249146942e-05 4.1112804159e-07 
-2.4995675457e-06 -3.6854157373e-05 4.0709788878e-07 -2.4960293214e-06 -3.96078656e-05 4.3554871065e-07 -2.495829089e-06 -3.8821559245e-05 4.2740900556e-07 
-2.5000349597e-06 -3.8426497318e-05 4.2337362424e-07 -2.4963704409e-06 -4.1139709631e-05 4.5140593968e-07 -2.4962033027e-06 -4.0353291063e-05 4.4326475548e-07 
-2.5004259416e-06 -3.9958169046e-05 4.3922413995e-07 -2.5049961658e-06 -4.1135838397e-05 4.5145584154e-07 -2.2573399235e-06 -2.2527578241e-06 7.6977981385e-08 
-2.3645075006e-06 -2.9062721637e-06 7.427308124e-08 -2.4291253076e-06 -3.6317856239e-06 6.9978259939e-08 -2.4507198441e-06 -4.3909644258e-06 7.282558652e-08 
-2.4617778122e-06 -5.1596478378e-06 7.7843466609e-08 -2.4672061902e-06 -5.9324782425e-06 8.6146005376e-08 -2.4711747911e-06 -6.7069982902e-06 9.463691896e-08 
-2.4745487317e-06 -7.4830108155e-06 1.0283706274e-07 -2.4773047651e-06 -8.2601758202e-06 1.1088119018e-07 -2.479847192e-06 -9.0381154277e-06 1.1908505059e-07 
-2.4817913331e-06 -9.8168623653e-06 1.2716643005e-07 -2.4835803911e-06 -1.0596289101e-05 1.3495416881e-07 -2.4853373689e-06 -1.1376306555e-05 1.4291545148e-07 
-2.48688386e-06 -1.2156763297e-05 1.510429484e-07 -2.4882201852e-06 -1.293759043e-05 1.5909793275e-07 -2.4894033632e-06 -1.3718796368e-05 1.6739484064e-07 
-2.490014469e-06 -1.4500428286e-05 1.7538680563e-07 -2.4906867302e-06 -1.5282283648e-05 1.8345251334e-07 -2.491373775e-06 -1.6064356416e-05 1.9157984576e-07 
-2.4920610656e-06 -1.6846648484e-05 1.9971136883e-07 -2.4927315845e-06 -1.7629155284e-05 2.0784083644e-07 -2.4933848122e-06 -1.8411869764e-05 2.1597304431e-07 
-2.4940199848e-06 -1.919478516e-05 2.2410681248e-07 -2.4946376618e-06 -1.9977896309e-05 2.3224112729e-07 -2.4952388375e-06 -2.0761197938e-05 2.4037453838e-07 
-2.4958235493e-06 -2.1544684585e-05 2.4850940935e-07 -2.4963912037e-06 -2.2328351043e-05 2.5664452211e-07 -2.4969418116e-06 -2.3112192412e-05 2.6477954718e-07 
-2.4974760578e-06 -2.3896203496e-05 2.7291335304e-07 -2.4979939433e-06 -2.4680378755e-05 2.8104841693e-07 -2.4984947907e-06 -2.5464712987e-05 2.8918362812e-07 
-2.4989786009e-06 -2.6249201271e-05 2.9731870384e-07 -2.499446057e-06 -2.7033838408e-05 3.0545253807e-07 -2.4998971591e-06 -2.7818618851e-05 3.1358761682e-07 
-2.5003312247e-06 -2.8603537401e-05 3.2172283568e-07 -2.500748254e-06 -2.9388589135e-05 3.2985791543e-07 -2.5011489299e-06 -3.0173768853e-05 3.3799175207e-07 
-2.5015332525e-06 -3.0959071009e-05 3.4612683229e-07 -2.5019005395e-06 -3.1744490403e-05 3.5426205187e-07 -2.5022507911e-06 -3.2530022113e-05 3.623971324e-07 
-2.5025846893e-06 -3.3315660942e-05 3.7053096954e-07 -2.5029022331e-06 -3.4101401338e-05 3.7866604568e-07 -2.5032027416e-06 -3.4887238104e-05 3.8680126587e-07 
-2.5034862093e-06 -3.5673166322e-05 3.9493635347e-07 -2.5037533269e-06 -3.6459180782e-05 4.0307019429e-07 -2.5040040914e-06 -3.7245275962e-05 4.1120529723e-07 
-2.5042378084e-06 -3.8031446649e-05 4.1934053567e-07 -2.5044544631e-06 -3.8817687924e-05 4.274756291e-07 -2.5046547462e-06 -3.9603994594e-05 4.3560956804e-07 
-2.5048292577e-06 -4.0349420061e-05 4.4332106455e-07 1.8117564489e-09 -1.21222094e-08 6.7936306601e-10 -1.8337413102e-08 -5.1520383648e-05 5.4731015339e-07 
4.3880726791e-09 -3.2881504432e-06 4.6198635682e-08 7.1524725844e-09 -6.3145113583e-06 7.8055658923e-08 7.1830932262e-09 -9.4240477311e-06 1.1060954828e-07 
7.1820271478e-09 -1.2544400341e-05 1.4315199532e-07 7.1811740692e-09 -1.5670954154e-05 1.7570037135e-07 7.1811468168e-09 -1.880103724e-05 2.0825028863e-07 
4.7552748038e-09 -4.8610816338e-05 5.1710669242e-07 7.1811563557e-09 -2.1934265155e-05 2.4080013464e-07 7.1811564601e-09 -2.5070330553e-05 2.7334997053e-07 
7.1811565145e-09 -2.8208900112e-05 3.0589980463e-07 7.1811570458e-09 -3.1349639993e-05 3.3844963742e-07 7.1811501174e-09 -3.4492216304e-05 3.7099946196e-07 
7.1810953956e-09 -3.7636295078e-05 4.0354928624e-07 4.3474560394e-09 -4.0610166199e-05 4.3433913357e-07 4.3505846759e-09 -4.567228079e-05 4.867116583e-07 
-8.8786730903e-09 -7.3427991738e-07 -3.2909848393e-10 -4.4296263057e-08 -4.3129762326e-05 4.6063524694e-07 -5.4141224587e-09 -5.2625164713e-09 2.5998138102e-09 
8.9586841776e-07 -3.2920739497e-05 3.5055568613e-07 8.9232424887e-07 -1.7235629899e-05 1.8776702609e-07 8.8637505368e-07 -7.8677856821e-06 8.9931805274e-08 
8.9123098258e-07 -1.4107206709e-05 1.5517725039e-07 9.8832934826e-07 -4.7102434015e-05 4.9693181984e-07 -8.8193106666e-07 -3.6064104806e-05 3.9143574326e-07 
8.9322420414e-07 -2.0367311788e-05 2.2032612181e-07 8.9402701325e-07 -2.3501996025e-05 2.5288365417e-07 8.9473525251e-07 -2.6639351216e-05 2.8544100981e-07 
8.9534904932e-07 -2.9779043666e-05 3.179983519e-07 8.7976801923e-07 -4.7662936737e-06 5.6958614595e-08 -8.7503626242e-07 -1.0983310788e-05 1.3115854432e-07 
9.8819426769e-07 -3.9175324738e-05 4.1489605467e-07 -9.4064153598e-07 -3.9168929068e-05 4.2383813839e-07 -9.4138008279e-07 -4.7109784583e-05 5.0597768993e-07 
-8.7984947539e-07 -4.766413571e-06 6.6573577623e-08 -8.9248834652e-07 -1.7235631128e-05 1.9625278275e-07 -8.9340298514e-07 -2.0367312972e-05 2.2879322229e-07 
-8.9421896875e-07 -2.3501997085e-05 2.6133523814e-07 -8.9493883083e-07 -2.6639352144e-05 2.9387742788e-07 -8.9556270068e-07 -2.9779044461e-05 3.2641963023e-07 
9.0388263646e-07 -1.098331646e-05 1.2253134895e-07 -8.864502375e-07 -7.8677770402e-06 9.8828150303e-08 -8.9137718019e-07 -1.4107209009e-05 1.6374402948e-07 
-8.960905873e-07 -3.2920740153e-05 3.5896182698e-07 9.1088479926e-07 -3.6064105322e-05 3.8304474029e-07 -9.6957877321e-07 -5.012622953e-05 5.3730659318e-07 
9.7362584812e-07 -5.01513092e-05 5.2854200496e-07 1.0135696167e-08 -4.4151378011e-09 -2.893744458e-09 8.6980216862e-07 -1.8784844776e-06 -8.3495651088e-09 
-8.6802842486e-07 -1.872056097e-06 5.9347318392e-08 5.7528812035e-07 -5.2913825223e-05 5.5896807543e-07 2.1364706545e-07 -1.6036738764e-07 -1.0827403899e-07 
-9.1266948186e-07 -5.2891983932e-05 5.6564930491e-07 -2.0404981361e-07 -1.5867608426e-07 1.0386114105e-07 6.9740554281e-07 -4.1844466479e-05 4.4387953857e-07 
6.9751490343e-07 -4.4433966102e-05 4.7067524901e-07 -1.0007852464e-06 -4.426061717e-05 4.7678680977e-07 -7.4917593174e-07 -4.1799004633e-05 4.5015326223e-07 
2.12597585e-09 -3.4381486793e-09 4.6461362334e-10 1.3712192832e-06 -5.1890623568e-05 5.4468879309e-07 1.3690682327e-06 -6.3152450308e-06 7.1077411701e-08 
1.374831291e-06 -9.4243153031e-06 1.0365869434e-07 1.3785878505e-06 -1.2544568408e-05 1.3655415894e-07 1.3805974527e-06 -1.5671072382e-05 1.6914725697e-07 
1.3833970982e-06 -2.1934347226e-05 2.3428714326e-07 1.3845699801e-06 -2.5070402966e-05 2.6684872493e-07 1.3855961956e-06 -2.820896287e-05 2.9941022072e-07 
1.3864758051e-06 -3.1349693099e-05 3.3197171023e-07 1.3872088194e-06 -3.4492259763e-05 3.6453319411e-07 1.3903544419e-06 -3.7629633528e-05 3.9701337468e-07 
1.4031386186e-06 -4.8631930169e-05 5.1082856118e-07 -1.326079501e-06 -3.2332310485e-06 6.0054160305e-08 -1.3547207472e-06 -6.3152194535e-06 8.5087739014e-08 
1.3386256621e-06 -3.2336792901e-06 3.1612945621e-08 -1.3604590893e-06 -9.4243106214e-06 1.175637153e-07 -1.3642242972e-06 -1.2544568734e-05 1.4975010349e-07 
-1.3662353463e-06 -1.5671072325e-05 1.8225369936e-07 -1.3677145547e-06 -1.880112883e-05 2.1477608648e-07 -1.3690348198e-06 -2.1934347223e-05 2.4731312954e-07 
-1.3702077012e-06 -2.5070402966e-05 2.7985121665e-07 -1.3712339166e-06 -2.820896287e-05 3.1238938878e-07 -1.3721135255e-06 -3.1349693094e-05 3.4492756778e-07 
-1.3728465274e-06 -3.4492259742e-05 3.7746574432e-07 -1.373432955e-06 -3.7636329008e-05 4.1000393147e-07 1.3820768365e-06 -1.8801128877e-05 2.0172451284e-07 
-1.3821667479e-06 -4.8633846703e-05 5.2378811449e-07 -1.3103250142e-06 -5.1552309393e-05 5.5363852287e-07 1.3477510833e-06 -4.5642084929e-05 4.8015077159e-07 
1.3474117852e-06 -4.0638595501e-05 4.2836665005e-07 -1.3161339927e-06 -4.5686911734e-05 4.9300473702e-07 -1.3157310037e-06 -4.0595567072e-05 4.4034681984e-07 
-1.578208878e-09 -3.9253030692e-09 3.643556152e-10 -7.6582965174e-08 -5.4621897071e-08 5.8464387708e-08 8.4133670933e-07 -8.2094642031e-07 -1.5830938249e-07 
-8.4828196419e-07 -8.3497562263e-07 1.7671381256e-07 8.9741254653e-08 -6.6831925362e-08 -6.4327507446e-08 -3.6556793704e-09 -4.5041790056e-09 3.4476628838e-10 
7.0469244041e-09 -4.6696101556e-09 -1.7288567079e-09 -1.3525928869e-06 -4.2855849836e-05 4.6389628832e-07 1.6476057843e-06 -5.3169584169e-05 5.5663606162e-07 
1.3567428641e-06 -4.3141064241e-05 4.5422599403e-07 -1.796133113e-06 -5.3445419198e-05 5.7547459997e-07 -1.0142575355e-09 -2.5471435206e-09 1.5792902177e-10 
-3.388226197e-07 -2.2657046597e-07 1.8055835621e-07 -1.0619430297e-07 -7.3890513514e-08 7.5175792262e-08 -1.3097851342e-06 -1.0992064337e-06 2.1984155808e-07 
-9.138808456e-07 -6.6558982175e-07 2.5173272702e-07 -1.4344761043e-07 -8.8626906763e-08 9.2000039148e-08 -4.8782295522e-07 -3.2501532416e-07 2.1479260568e-07 
-4.7986108737e-07 -4.384379515e-07 1.5485366282e-07 -2.3654948331e-09 -3.9219271166e-09 4.3947903699e-10 -1.9184308601e-09 -3.8375654665e-09 3.5665951863e-10 
5.8604553488e-10 -3.0539755343e-09 2.7294517599e-10 3.446494547e-09 -3.3056478192e-09 -1.5842307868e-10 -4.0301029004e-09 -4.6007569316e-09 1.4380698745e-09 
-2.7903821848e-09 -3.940104246e-09 1.1774810904e-09 -4.6514251849e-09 -3.9128792453e-09 1.5841030425e-09 4.0546114243e-09 -3.5956427312e-09 -3.4939958071e-10 
-1.9311132342e-06 -4.2998469894e-05 4.6806580172e-07 -1.9310148192e-06 -4.2211939936e-05 4.5993266685e-07 -1.755303724e-06 -4.4487436345e-05 4.8264368819e-07 
-1.7552349401e-06 -4.3700842276e-05 4.7451002859e-07 -1.1766985258e-06 -4.3558220038e-05 4.7034120934e-07 1.0943233192e-07 -7.5224918348e-08 -7.2740915731e-08 
3.5800663241e-07 -2.4549094568e-07 -1.8781939415e-07 9.0813288294e-07 -6.6721853398e-07 -2.4662151445e-07 1.297493381e-06 -1.0911187345e-06 -1.8940724479e-07 
4.859375108e-07 -4.3209773383e-07 -1.5727660973e-07 4.918998833e-07 -3.2940862031e-07 -2.1409576031e-07 1.5769789144e-07 -9.7885780251e-08 -9.45258435e-08 
1.9402795927e-06 -4.2354539957e-05 4.4336483475e-07 1.940376175e-06 -4.3141084032e-05 4.5150769049e-07 1.9404615669e-06 -4.3927662643e-05 4.5965016361e-07 
2.0860946723e-06 -5.3661982464e-05 5.5969420296e-07 1.4567473499e-06 -5.3661976288e-05 5.6261557628e-07 2.0860916655e-06 -5.2875296197e-05 5.515563764e-07 
-1.5238126518e-06 -5.3799886988e-05 5.7787696173e-07 -2.1531601663e-06 -5.3799886841e-05 5.8079830692e-07 -2.1531598122e-06 -5.3013200903e-05 5.7266120567e-07 
-3.7927385649e-08 -2.1406091056e-08 3.132370838e-08 -7.106010458e-09 -4.1046667837e-09 5.8974190944e-09 -2.1893966469e-08 -1.3215541735e-08 2.4597608407e-08 
-2.4865225376e-09 -3.4857061102e-09 1.4886209077e-09 -1.1593041781e-09 -3.8043086074e-09 2.8304919586e-10 -3.7701661678e-09 -3.2158644293e-09 2.8725078961e-09 
-2.3684088029e-09 -4.1421486415e-09 4.1085680564e-10 -9.5953348733e-10 -2.8438317514e-09 1.6099382303e-10 -1.004884382e-09 -3.4424560986e-09 1.9619891561e-10 
-1.1949272889e-09 -3.6052139321e-09 2.6828969296e-10 -1.5981398815e-09 -3.8280779734e-09 3.4429530959e-10 5.5438070703e-09 -4.2349737919e-09 -7.4404130535e-10 
5.6562102794e-09 -4.2219654388e-09 -7.5701318348e-10 7.1827051925e-09 -4.3047260738e-09 -7.7741341917e-10 6.4915349216e-09 -3.902323999e-09 -1.1003553169e-09 
8.7461548965e-09 -3.8041073597e-09 -1.7588548626e-09 4.0745676986e-09 -3.8052000836e-09 -3.608140442e-10 5.0821438261e-09 -4.0138793288e-09 -8.9633674904e-10 
6.3802098071e-09 -2.6317977393e-09 -3.0669255932e-09 -1.5845444884e-06 -2.2032990237e-06 8.774728793e-08 -1.4298800453e-06 -1.5317315643e-06 1.3220577031e-07 
-9.2124123979e-07 -1.2994263307e-06 9.9319456637e-08 -1.8844300653e-06 -3.6180082966e-06 6.8983107712e-08 -1.8444971895e-06 -2.8708613398e-06 8.2618396542e-08 
-1.1028250508e-06 -2.5431503849e-06 6.2591983609e-08 -1.6737628371e-06 -5.1544013069e-06 7.530867736e-08 -1.6666926191e-06 -4.3824888058e-06 6.9791093457e-08 
-1.1082458399e-06 -3.995528839e-06 6.2721466738e-08 -1.9157738758e-06 -6.7036737883e-06 9.2390002229e-08 -1.9128564327e-06 -5.9288952184e-06 8.4364091503e-08 
-1.1168891364e-06 -5.5399556444e-06 7.5818797e-08 -1.6842839562e-06 -8.2568785032e-06 1.0717311042e-07 -1.6826282783e-06 -7.4795835157e-06 9.9116226645e-08 
-1.1209820403e-06 -7.0909177532e-06 9.1950686014e-08 -1.9233643417e-06 -9.8141230741e-06 1.2449589613e-07 -1.9222706929e-06 -9.0352203385e-06 1.1650592497e-07 
-1.1233060616e-06 -8.6456739834e-06 1.0812848492e-07 -1.6823925845e-06 -1.1373595527e-05 1.3922524358e-07 -1.6812875337e-06 -1.0593509372e-05 1.312071373e-07 
-1.117961471e-06 -1.0203498318e-05 1.2429947862e-07 -1.9286389522e-06 -1.2935183528e-05 1.5661766126e-07 -1.9276290194e-06 -1.2154290756e-05 1.4847464779e-07 
-1.119515755e-06 -1.1763699019e-05 1.4042155249e-07 -1.6928694683e-06 -1.4498246909e-05 1.7163757297e-07 -1.6923011168e-06 -1.371657423e-05 1.6354146132e-07 
-1.1279172597e-06 -1.332571889e-05 1.5676611698e-07 -1.9310511823e-06 -1.6062253215e-05 1.8900302801e-07 -1.930487185e-06 -1.5280180652e-05 1.8086545623e-07 
-1.1287566098e-06 -1.4889043069e-05 1.7300230909e-07 -1.6948107632e-06 -1.7627022088e-05 2.0413325473e-07 -1.6943549529e-06 -1.6844508047e-05 1.9600243726e-07 
-1.1294316943e-06 -1.6453241037e-05 1.8925107269e-07 -1.9331019369e-06 -1.9192704405e-05 2.2152452614e-07 -1.9326098161e-06 -1.8409784329e-05 2.1339253358e-07 
-1.130043203e-06 -1.8018276311e-05 2.0551466291e-07 -1.6965153835e-06 -2.0759085955e-05 2.3666511475e-07 -1.6961066693e-06 -1.9975778904e-05 2.285315548e-07 
-1.1306205529e-06 -1.9584121088e-05 2.2178417124e-07 -1.9349387413e-06 -2.2326286074e-05 2.5405670196e-07 -1.9344990884e-06 -2.1542615385e-05 2.459236497e-07 
-1.1311667088e-06 -2.115073694e-05 2.3805344444e-07 -1.6980361014e-06 -2.3894111497e-05 2.6920023412e-07 -1.6976729873e-06 -2.3110095103e-05 2.610664014e-07 
-1.1316822834e-06 -2.2718083044e-05 2.5432388875e-07 -1.936567827e-06 -2.5462663513e-05 2.8659000035e-07 -1.93617996e-06 -2.4678325073e-05 2.7845687353e-07 
-1.1321674748e-06 -2.4286117586e-05 2.7059350562e-07 -1.6993750403e-06 -2.7031766301e-05 3.0173561368e-07 -1.6990573291e-06 -2.6247123864e-05 2.9360176082e-07 
-1.1326223218e-06 -2.5854799164e-05 2.8686404208e-07 -1.9379899902e-06 -2.8601503397e-05 3.1912338202e-07 -1.9376538434e-06 -2.7816580642e-05 3.1099024944e-07 
-1.1330468412e-06 -2.7424085789e-05 3.0313368723e-07 -1.7005324136e-06 -3.0171716632e-05 3.3427101298e-07 -1.7002600907e-06 -2.9386531614e-05 3.261371585e-07 
-1.1334410363e-06 -2.8993935996e-05 3.1940423048e-07 -1.9392052893e-06 -3.1742471867e-05 3.5165677082e-07 -1.9389208577e-06 -3.0957048267e-05 3.4352363751e-07 
-1.1338049084e-06 -3.0564307782e-05 3.3567387781e-07 -1.7015082368e-06 -3.3313628603e-05 3.6680641373e-07 -1.7012813008e-06 -3.2527984476e-05 3.5867255912e-07 
-1.1341384568e-06 -3.2135159677e-05 3.5194441993e-07 -1.9402137464e-06 -3.4885235034e-05 3.8419015163e-07 -1.9399810133e-06 -3.4099394062e-05 3.7605702493e-07 
-1.1344416773e-06 -3.3706449678e-05 3.68214067e-07 -1.6950062193e-06 -3.645716784e-05 3.9930768003e-07 -1.6948254437e-06 -3.5671148046e-05 3.9117380238e-07 
-1.1274196135e-06 -3.5278135962e-05 3.8445045784e-07 -1.941015261e-06 -3.802945905e-05 4.1672358527e-07 -1.9408343284e-06 -3.7243284158e-05 4.0859043499e-07 
-1.1276606601e-06 -3.6850177282e-05 4.007201162e-07 -1.7248066932e-06 -3.9582063176e-05 4.3177326063e-07 -1.7246685823e-06 -3.8795752955e-05 4.2363942123e-07 
-1.1570586694e-06 -3.8402595399e-05 4.1692078404e-07 -1.9125330813e-06 -4.1081806922e-05 4.4816001418e-07 -1.9124041964e-06 -4.0295387598e-05 4.4002632097e-07 
-1.1281765979e-06 -3.9882224241e-05 4.3209279648e-07 -1.0324683489e-06 -4.1197270054e-05 4.4524983631e-07 -1.6292761717e-06 -4.1683527766e-05 4.5306170335e-07 
-1.0508741009e-06 -4.2327417692e-05 4.5702520718e-07 2.8510436303e-08 -1.2362812127e-08 -2.1404061966e-08 2.9339588154e-08 -1.5070176808e-08 -2.5624350885e-08 
4.0338065798e-08 -2.0856811397e-08 -3.0316659821e-08 1.4113514556e-06 -1.5488831518e-06 -9.8631521851e-08 1.5800797368e-06 -2.2094406861e-06 -3.2064462033e-08 
9.0416973513e-07 -1.2999620812e-06 -7.3255117165e-08 1.8564658744e-06 -2.8717625388e-06 1.4200738437e-09 1.8977675936e-06 -3.6195804831e-06 3.0357696079e-08 
1.1121993725e-06 -2.5455969184e-06 1.0846651138e-08 1.6739153448e-06 -4.3828381247e-06 4.5530769277e-08 1.6810140011e-06 -5.1544507535e-06 5.6380563948e-08 
1.115144549e-06 -3.9953860287e-06 4.4449978736e-08 1.9272604045e-06 -5.9288764684e-06 6.3634169922e-08 1.9301531415e-06 -6.703715081e-06 7.1954792401e-08 
1.1240609902e-06 -5.539934132e-06 6.4048773249e-08 1.6897812117e-06 -7.479619079e-06 8.1500184359e-08 1.6914353054e-06 -8.2568959383e-06 8.9699673423e-08 
1.1281165902e-06 -7.0909399469e-06 8.0505187787e-08 1.9366462782e-06 -9.0352311207e-06 9.6590936474e-08 1.9377395791e-06 -9.8141272912e-06 1.0486281694e-07 
1.1304497549e-06 -8.6456811533e-06 9.6866071529e-08 1.7028962108e-06 -1.0593515955e-05 1.1438463347e-07 1.7040010281e-06 -1.1373600978e-05 1.2263692777e-07 
1.1395659496e-06 -1.0203504279e-05 1.1315519493e-07 1.9419907695e-06 -1.2154291086e-05 1.2969338983e-07 1.9430015937e-06 -1.2935183615e-05 1.3782365153e-07 
1.1411255347e-06 -1.1763702093e-05 1.2957531028e-07 1.6994088482e-06 -1.3716572246e-05 1.4720846556e-07 1.6999752478e-06 -1.4498244918e-05 1.5538604606e-07 
1.1350279476e-06 -1.3325717509e-05 1.4584654325e-07 1.9448494432e-06 -1.528018051e-05 1.6239793735e-07 1.9454134789e-06 -1.6062253409e-05 1.705354572e-07 
1.1358621418e-06 -1.4889041669e-05 1.6215829979e-07 1.7014548767e-06 -1.6844506941e-05 1.7984547176e-07 1.7019087518e-06 -1.7627020973e-05 1.8798952427e-07 
1.1365326182e-06 -1.645324023e-05 1.7845931714e-07 1.9469721253e-06 -1.8409784396e-05 1.9497062762e-07 1.947464241e-06 -1.9192704448e-05 2.0311355386e-07 
1.137140348e-06 -1.8018275572e-05 1.9474553176e-07 1.7031991035e-06 -1.9975777773e-05 2.1241589705e-07 1.7036060734e-06 -2.0759084843e-05 2.2055722968e-07 
1.1377140191e-06 -1.9584120338e-05 2.1102580744e-07 1.9488613921e-06 -2.1542615385e-05 2.2753916225e-07 1.9493010452e-06 -2.2326286081e-05 2.3568103671e-07 
1.1382566865e-06 -2.1150736205e-05 2.2730635815e-07 1.7047587373e-06 -2.3110094081e-05 2.4498065179e-07 1.7051203019e-06 -2.3894110503e-05 2.5312171434e-07 
1.1387689675e-06 -2.2718082354e-05 2.4358569995e-07 1.9505422644e-06 -2.4678325069e-05 2.601056048e-07 1.9509301314e-06 -2.5462663517e-05 2.6824740524e-07 
1.1392510595e-06 -2.4286116931e-05 2.598659052e-07 1.706137171e-06 -2.6247122967e-05 2.7754489828e-07 1.7064535263e-06 -2.7031765433e-05 2.8568594084e-07 
1.1397030009e-06 -2.5854798558e-05 2.7614515377e-07 1.9520161478e-06 -2.7816580637e-05 2.9267189653e-07 1.9523522947e-06 -2.8601503402e-05 3.0081369131e-07 
1.1401248083e-06 -2.7424085217e-05 2.9242533015e-07 1.7073347993e-06 -2.9386530844e-05 3.1010910686e-07 1.7076059599e-06 -3.0171715891e-05 3.1825014792e-07 
1.1405164852e-06 -2.8993935474e-05 3.0870457162e-07 1.9532831622e-06 -3.0957048266e-05 3.2523817698e-07 1.953567594e-06 -3.1742471876e-05 3.3337997145e-07 
1.1408780328e-06 -3.0564307296e-05 3.2498474576e-07 1.7083516525e-06 -3.2527983836e-05 3.4267331199e-07 1.7085776198e-06 -3.3313627989e-05 3.5081435241e-07 
1.1412094523e-06 -3.2135159244e-05 3.4126398489e-07 1.9543433169e-06 -3.409939406e-05 3.5780445265e-07 1.9545760194e-06 -3.4885235038e-05 3.6594623838e-07 
1.1415107485e-06 -3.370644928e-05 3.575441578e-07 1.7164832566e-06 -3.5671148558e-05 3.7520335263e-07 1.7166648092e-06 -3.6457168305e-05 3.8334441138e-07 
1.1490768822e-06 -3.5278136318e-05 3.7378924471e-07 1.9564759015e-06 -3.7239936608e-05 3.9033006369e-07 1.9566570385e-06 -3.8026111068e-05 3.9847182321e-07 
1.1505989826e-06 -3.6846830185e-05 3.9002878002e-07 1.7556263772e-06 -3.8798950913e-05 4.0741442717e-07 1.7557658979e-06 -3.9585261203e-05 4.1555551546e-07 
1.1892948868e-06 -3.8402445053e-05 4.0595496149e-07 1.9354276215e-06 -4.0316901e-05 4.2229204855e-07 1.9355574011e-06 -4.1103321617e-05 4.3043374063e-07 
1.1677938068e-06 -3.9906935149e-05 4.2163110028e-07 1.0224246921e-06 -4.1241514991e-05 4.3612301445e-07 1.6105737173e-06 -4.1706258119e-05 4.3819090615e-07 
1.0270605161e-06 -4.2492750354e-05 4.4905232544e-07 9.2058817264e-07 -5.3534097017e-05 5.6378148963e-07 2.9124343665e-07 -5.3534092562e-05 5.6670269818e-07 
1.1114463496e-06 -5.3041704389e-05 5.5780204898e-07 -4.5273588784e-07 -5.3523171785e-05 5.7004308913e-07 -1.0820808215e-06 -5.3523170078e-05 5.7296433714e-07 
-1.6869032536e-07 -5.2902903687e-05 5.6230867919e-07 -1.3544007546e-06 -5.316870153e-05 5.7056194404e-07 1.9359954408e-06 -4.5178180703e-05 4.7261386368e-07 
1.9360520837e-06 -4.5964818363e-05 4.8075471715e-07 1.0226255517e-06 -4.5038018949e-05 4.7541276533e-07 1.6108513229e-06 -4.4574121778e-05 4.6787531999e-07 
1.0271405913e-06 -4.3787504603e-05 4.6245140981e-07 1.7563516337e-06 -4.6694989457e-05 4.8914593898e-07 1.7563877041e-06 -4.7481657307e-05 4.9728574752e-07 
1.1680460965e-06 -4.637225272e-05 4.885415287e-07 1.9638056788e-06 -4.8246405154e-05 5.0423475446e-07 1.9638311635e-06 -4.9033089156e-05 5.1237459639e-07 
1.195732751e-06 -4.7867178415e-05 5.0388007916e-07 1.7490768965e-06 -4.9792777079e-05 5.2123170104e-07 1.749090128e-06 -5.0579468684e-05 5.2937042057e-07 
1.1883853619e-06 -4.9391617761e-05 5.1968542914e-07 1.9478912396e-06 -5.1449125699e-05 5.3744428534e-07 1.9478977777e-06 -5.2235816148e-05 5.4558261982e-07 
1.1724230494e-06 -5.1020966746e-05 5.3661526203e-07 1.5094129591e-06 -5.2530104752e-05 5.5066239956e-07 -1.9130569429e-06 -4.5987218496e-05 4.9888592151e-07 
-1.9130025151e-06 -4.5200580512e-05 4.9075199706e-07 -1.1584571352e-06 -4.4973755756e-05 4.8489578768e-07 -1.7257241899e-06 -4.7485319331e-05 5.1350681659e-07 
-1.725690814e-06 -4.6698651119e-05 5.0537167216e-07 -1.1287628995e-06 -4.6398341672e-05 4.9949101376e-07 -1.9461542738e-06 -4.903403445e-05 5.3054626118e-07 
-1.9461312694e-06 -4.8247350254e-05 5.2241121736e-07 -1.1617720136e-06 -4.7871812032e-05 5.148830921e-07 -1.7398733061e-06 -5.0566915828e-05 5.4544131088e-07 
-1.7398624467e-06 -4.9780224237e-05 5.3730518881e-07 -1.1758760603e-06 -4.9380036103e-05 5.3054728975e-07 -1.9102549338e-06 -5.2066646369e-05 5.6174336124e-07 
-1.9102501081e-06 -5.1279955593e-05 5.5360681132e-07 -1.1399521029e-06 -5.0839269691e-05 5.4547265381e-07 -1.1114979864e-06 -5.2222147381e-05 5.5964384608e-07 
-1.7114262538e-06 -5.2736482526e-05 5.6774857166e-07 2.0267339147e-09 -4.2644968884e-09 2.4782534891e-10 -9.4501241425e-09 -5.6131052269e-09 4.8116422014e-09 
-2.2896943963e-08 -1.4275882496e-08 2.6125000672e-08 1.0452930142e-08 -5.541875469e-09 -3.1109282979e-09 2.8360164169e-08 -1.7261441849e-08 -2.870214922e-08 
-3.1589368777e-08 -3.1409220052e-08 3.4540044387e-08 1.2110833776e-08 -1.193857479e-07 -1.6976154176e-09 3.7197117489e-08 -3.262817418e-08 -3.1958735019e-08 
4.7764674763e-07 -5.0835845595e-05 5.3792616054e-07 2.0231207391e-09 -5.013876663e-05 5.3292430115e-07 -4.9396069968e-07 -5.0823305884e-05 5.4230826097e-07 
-6.6433060386e-07 -5.1536345697e-05 5.5047435738e-07 6.7643949197e-07 -5.1705502762e-05 5.459993849e-07 -4.6550244389e-07 -5.2206184429e-05 5.5647980443e-07 
2.7847465365e-07 -5.2217105202e-05 5.5313905669e-07 9.7325418596e-07 -5.240222451e-05 5.5182844416e-07 -4.3546287152e-07 -4.0247728208e-06 5.62025366e-08 
-5.6991864052e-11 -4.7658426459e-06 6.1733205648e-08 4.399381754e-07 -4.0248258857e-06 5.1769411448e-08 6.7415814596e-07 -3.2576600084e-06 3.9249348432e-08 
-6.626555882e-07 -3.258091758e-06 5.1980732268e-08 7.1549935615e-09 -1.8647221662e-06 2.6717110173e-08 -4.4900460369e-07 -2.5642058865e-06 5.0514910426e-08 
4.5984736629e-07 -2.5632085243e-06 2.3682787432e-08 -4.3908773667e-07 -7.0906654752e-06 8.8416450686e-08 -3.5424677381e-11 -7.867600319e-06 9.4374447019e-08 
4.4622283654e-07 -7.0906795528e-06 8.4023749957e-08 6.8771023974e-07 -6.3147430804e-06 7.4571917204e-08 -4.3746841615e-07 -5.5394975218e-06 7.2354703058e-08 
4.4453987084e-07 -5.5394924305e-06 6.7473060872e-08 -6.7338710239e-07 -6.3147078246e-06 8.1547329688e-08 -4.4008328697e-07 -8.6454831886e-06 1.0473520445e-07 
4.4722407099e-07 -8.6454862667e-06 1.0025247114e-07 6.9096309036e-07 -9.4241185139e-06 1.071637815e-07 1.4421634867e-08 -1.0983206968e-05 1.2684435247e-07 
4.5519979604e-07 -1.0203360462e-05 1.1653830745e-07 -4.3359954319e-07 -1.0203358391e-05 1.2091499842e-07 -6.7659531374e-07 -9.4241154707e-06 1.140563456e-07 
-4.4190808961e-07 -1.3325625332e-05 1.5344676762e-07 -7.2517521027e-11 -1.4107138291e-05 1.5946064511e-07 4.4902021085e-07 -1.3325624693e-05 1.4916569807e-07 
6.928237713e-07 -1.254444244e-05 1.3984859555e-07 4.558079756e-07 -1.1763594817e-05 1.3284644048e-07 -4.3419892705e-07 -1.176359322e-05 1.3714976325e-07 
-6.7845966796e-07 -1.2544442448e-05 1.4645548232e-07 -4.4252947034e-07 -1.6453180833e-05 1.8597812247e-07 -8.1971256619e-11 -1.7235588748e-05 1.920098794e-07 
4.4963058348e-07 -1.6453180514e-05 1.817321826e-07 6.938783595e-07 -1.5670984541e-05 1.7242440102e-07 -4.4225349539e-07 -1.4888953982e-05 1.69718367e-07 
4.4935926573e-07 -1.4888953402e-05 1.6544242029e-07 -6.7951619655e-07 -1.5670984507e-05 1.7897641027e-07 -4.4277165945e-07 -1.8018221778e-05 2.0225080803e-07 
4.4986888209e-07 -1.8018221493e-05 1.980093435e-07 6.9462552054e-07 -1.880106013e-05 2.0498749894e-07 -4.4300036406e-07 -1.9584069611e-05 2.1852217722e-07 
-8.9313101834e-11 -2.0367275748e-05 2.2455967007e-07 4.5009393558e-07 -1.9584069314e-05 2.1428780264e-07 -6.8026325692e-07 -1.8801060099e-05 2.1151308279e-07 
2.3473776886e-08 -4.7106104631e-05 5.014549219e-07 -4.6832007945e-07 -4.7860295274e-05 5.115417477e-07 4.9655004996e-07 -4.7856619887e-05 5.0701975486e-07 
7.039453046e-07 -4.862137154e-05 5.1396757903e-07 -6.8870411086e-07 -4.8622329745e-05 5.2044742699e-07 4.8918626457e-07 -4.9381060802e-05 5.2282402492e-07 
-4.8240697461e-07 -4.9368520785e-05 5.2720686565e-07 -4.4321636778e-07 -2.1150688131e-05 2.3479628671e-07 4.5030645642e-07 -2.1150687844e-05 2.3056350151e-07 
6.9528559942e-07 -2.1934285672e-05 2.3754364518e-07 -4.4342037742e-07 -2.2718037095e-05 2.5106803593e-07 -9.5900001693e-11 -2.3501963979e-05 2.5710944589e-07 
4.5050717231e-07 -2.2718036821e-05 2.4684156233e-07 -6.8092332355e-07 -2.193428567e-05 2.4405662501e-07 -4.4361234426e-07 -2.4286074345e-05 2.6734225804e-07 
4.5069603973e-07 -2.4286074089e-05 2.6311714151e-07 6.9587204407e-07 -2.5070348656e-05 2.7009934819e-07 -4.4379231056e-07 -2.585475879e-05 2.8361404245e-07 
-1.01711434e-10 -2.6639323176e-05 2.896592188e-07 4.5087310037e-07 -2.5854758549e-05 2.7939516401e-07 -6.81509768e-07 -2.5070348656e-05 2.7660059301e-07 
-4.4396027575e-07 -2.7424048122e-05 2.9988827328e-07 4.5103835362e-07 -2.7424047899e-05 2.9567073318e-07 6.9638515207e-07 -2.8208915801e-05 3.026550127e-07 
-4.4411624327e-07 -2.8993901197e-05 3.1616006018e-07 -1.0674787878e-10 -2.9779019632e-05 3.2220899101e-07 4.5119180289e-07 -2.8993900989e-05 3.1194875254e-07 
-6.820228759e-07 -2.8208915801e-05 3.0914459665e-07 -4.443921841e-07 -3.2135130453e-05 3.4870607727e-07 -1.110071461e-10 -3.2920719465e-05 3.5475876075e-07 
4.5146329088e-07 -3.2135130281e-05 3.445023385e-07 6.9682495731e-07 -3.134965327e-05 3.3521067388e-07 -4.442602128e-07 -3.056427569e-05 3.3243429131e-07 
4.5133344836e-07 -3.05642755e-05 3.2822432058e-07 -6.8246267989e-07 -3.1349653268e-05 3.4168860262e-07 -4.4451215702e-07 -3.3706423164e-05 3.6498031048e-07 
4.5158133048e-07 -3.3706423003e-05 3.6077790829e-07 6.9719146788e-07 -3.4492227167e-05 3.6776632553e-07 1.4476789768e-08 -3.6064088775e-05 3.872402352e-07 
4.5898243491e-07 -3.5278112663e-05 3.7702175809e-07 -4.3732526744e-07 -3.5278112526e-05 3.8121792876e-07 -6.8282917778e-07 -3.4492227166e-05 3.7423259988e-07 
4.5907841113e-07 -3.6850156611e-05 3.932973556e-07 -4.3741971776e-07 -3.6850156505e-05 3.9749218263e-07 -6.8312246548e-07 -3.7636303595e-05 4.0677661652e-07 
-4.6669071318e-07 -3.8402576783e-05 4.1369403007e-07 2.3775789396e-08 -3.9172112716e-05 4.1936710273e-07 4.9764656666e-07 -3.8405774162e-05 4.092223348e-07 
6.9876459153e-07 -3.7632955795e-05 4.0028132014e-07 -4.6817919999e-07 -3.9889519604e-05 4.2908828107e-07 4.9630415315e-07 -3.9892717262e-05 4.2461787717e-07 
6.7587535676e-07 -4.0624375088e-05 4.3135297523e-07 -6.5568937718e-07 -4.0602860998e-05 4.3734300735e-07 -3.7239673053e-07 -4.1204570222e-05 4.4224638359e-07 
-2.588658205e-08 -4.1821729886e-05 4.4701636112e-07 3.5085977799e-07 -4.122730013e-05 4.3910914745e-07 -4.6850482675e-07 -4.6391025942e-05 4.9634507971e-07 
4.9632947712e-07 -4.6387350651e-05 4.918212254e-07 6.7604876748e-07 -4.5657179937e-05 4.8343113319e-07 -6.5588952685e-07 -4.5679593481e-05 4.8985822131e-07 
-1.5163719116e-07 -4.4347285409e-05 4.7373063011e-07 -4.9823231695e-07 -4.4966437744e-05 4.8174846777e-07 3.5094187171e-07 -4.5053115829e-05 4.7869391725e-07 
-4.1121164381e-07 -1.2759584731e-06 3.8738528206e-08 3.9859272763e-07 -1.2775694708e-06 -1.7153679359e-08 4.3376106446e-07 -7.4666654312e-07 -7.6194465581e-08 
-4.4594461633e-07 -7.5523576906e-07 9.1226339672e-08 -1.8666617431e-07 -3.6567457814e-07 5.0857468074e-08 1.9168255348e-07 -3.6212746565e-07 -5.4408530926e-08 
-3.9675227919e-07 -4.2464367399e-05 4.55393787e-07 3.2657017144e-07 -4.2487100115e-05 4.5225808547e-07 6.5621952193e-07 -4.3135408675e-05 4.5743039995e-07 
-5.2252583969e-07 -4.3695180606e-05 4.6871170643e-07 3.2659630338e-07 -4.378185267e-05 4.6565476648e-07 -6.9844648405e-07 -4.2992801109e-05 4.6226553658e-07 
2.3778964772e-07 -2.2855484413e-07 1.7759153664e-08 2.1269920376e-08 -2.6338314556e-08 -4.200474848e-09 3.4852664327e-09 -3.9160512181e-09 -4.4405011439e-10 
4.0406674042e-09 -3.4025450915e-09 -2.7531502144e-10 4.0867446958e-09 -3.1524132293e-09 -2.4940826797e-10 4.0543028236e-09 -3.1703954167e-09 -2.2551445987e-10 
3.9613388685e-09 -3.5934606899e-09 -2.7747754905e-10 4.1210845388e-09 -3.1366159026e-09 -2.7663576633e-10 4.0944405448e-09 -3.5597014156e-09 -3.3196910614e-10 
1.7460601098e-07 -1.6488250195e-07 6.2035881017e-08 4.9381221736e-07 -4.2008773472e-07 1.3619079453e-07 4.6037456165e-07 -4.3753046551e-07 1.7845884325e-08 
4.8986470236e-07 -4.2885448436e-07 -1.0936686883e-07 1.6350985053e-07 -1.6057905249e-07 -4.3685973852e-08 3.6927783923e-09 -3.9832061353e-09 -4.7256499283e-10 
2.9346285829e-09 -3.236820378e-09 -3.5546265868e-10 3.9430935359e-09 -3.8022000398e-09 -3.3735893106e-10 5.8590597048e-08 -6.3401705652e-08 2.2815732803e-08 
8.0314462584e-09 -1.0789316004e-08 1.3840090907e-09 5.3947268242e-09 -6.1552320185e-09 -1.0987116971e-09 9.2867307141e-08 -1.021526394e-07 -3.0197900296e-09 
3.6720951033e-09 -3.2939478403e-09 -1.018001552e-09 3.9616417872e-09 -3.9288914891e-09 -2.8082054459e-10 1.0056551553e-08 -1.1924742685e-08 -5.1448214796e-09 
5.3820703746e-08 -5.5387087041e-08 -3.0830375685e-08 2.5210066757e-06 -1.8805247043e-05 1.9656183393e-07 2.4321298476e-06 -3.2653433264e-06 3.7588378694e-08 
2.4964923495e-06 -6.3214316988e-06 6.6842503737e-08 2.1789081001e-06 -1.9939619559e-06 1.2703200019e-08 2.4853464717e-06 -4.7760779178e-06 5.1549859188e-08 
2.5032777382e-06 -7.8735646502e-06 8.2637738449e-08 2.5081235237e-06 -9.4296268606e-06 9.865472643e-08 2.5118790095e-06 -1.098812047e-05 1.1531825766e-07 
2.5170398779e-06 -1.4111531333e-05 1.4758031466e-07 2.5183436167e-06 -1.5675237185e-05 1.6398872938e-07 2.5197023492e-06 -1.7239821014e-05 1.8028148273e-07 
2.522242337e-06 -2.0371467235e-05 2.128382532e-07 2.5234109515e-06 -2.1938438707e-05 2.2911357804e-07 2.5245128115e-06 -2.3506119688e-05 2.4538860734e-07 
2.5255478899e-06 -2.5074468464e-05 2.6166355525e-07 2.5265161902e-06 -2.6643443296e-05 2.7793848074e-07 2.5274177108e-06 -2.8213002447e-05 2.9421340009e-07 
2.5282524524e-06 -2.978310418e-05 3.1048831781e-07 2.5290204137e-06 -3.1353706758e-05 3.267632351e-07 2.5297215928e-06 -3.2924768441e-05 3.4303815184e-07 
2.5303560063e-06 -3.4496247496e-05 3.5931306167e-07 2.5309236169e-06 -3.6068102183e-05 3.7558797484e-07 2.5314244271e-06 -3.764029071e-05 3.9186286843e-07 
2.5318586661e-06 -3.9212771376e-05 4.0813777825e-07 2.5322090445e-06 -4.0703617891e-05 4.235652417e-07 2.5149928218e-06 -1.2548983457e-05 1.3156154234e-07 
1.343057693e-06 -1.0013422058e-06 1.3611538282e-07 2.5368417846e-06 -4.2360378642e-05 4.4070899296e-07 1.3485235152e-06 -9.9039394197e-07 -1.4983701453e-07 
2.5282152313e-06 -4.2356507812e-05 4.4066622742e-07 2.0131920866e-06 -1.6967219521e-06 8.6514609271e-08 2.2745417402e-06 -2.2657174818e-06 6.6874380325e-08 
1.8089280114e-06 -1.4296592548e-06 -1.1046087105e-08 1.9985278258e-06 -1.6762456921e-06 -8.8658448841e-08 2.3926694135e-06 -2.9074606563e-06 6.0247697363e-08 
2.4553949346e-06 -3.6394154534e-06 4.8082166537e-08 2.3394677932e-06 -2.6046765325e-06 3.3206506379e-08 2.4827850653e-06 -4.3952501894e-06 5.0867409126e-08 
2.493756464e-06 -5.1625974621e-06 5.7546725581e-08 2.4678263887e-06 -4.0140432041e-06 4.2286510986e-08 2.4982960386e-06 -5.9361102252e-06 6.4322190305e-08 
2.5025559358e-06 -6.710772909e-06 7.1703002842e-08 2.4918810533e-06 -5.5476637463e-06 5.9424584757e-08 2.5060252936e-06 -7.4869320344e-06 7.9506451271e-08 
2.5088174539e-06 -8.2639331718e-06 8.7339247336e-08 2.5000879496e-06 -7.0969513354e-06 7.4667834061e-08 2.51120085e-06 -9.0420951329e-06 9.5309028932e-08 
2.51357161e-06 -9.8209565592e-06 1.0335732034e-07 2.5057930721e-06 -8.6510220212e-06 9.0706376402e-08 2.5154917589e-06 -1.0600129491e-05 1.1157176557e-07 
2.5170328607e-06 -1.1380082684e-05 1.1982683243e-07 2.5101826775e-06 -1.020851349e-05 1.0694334337e-07 2.5183939028e-06 -1.2160475224e-05 1.2788187271e-07 
2.5197624194e-06 -1.2941434264e-05 1.3580957715e-07 2.5134648773e-06 -1.1768419246e-05 1.23485549e-07 2.520786809e-06 -1.372279304e-05 1.4378485071e-07 
2.5217796519e-06 -1.4504314162e-05 1.5187340022e-07 2.516006352e-06 -1.3330072389e-05 1.3959186282e-07 2.5223290576e-06 -1.5286169929e-05 1.6000154611e-07 
2.5230035293e-06 -1.6068233551e-05 1.6817134056e-07 2.5177116892e-06 -1.4893298198e-05 1.5582760754e-07 2.5236825126e-06 -1.6850523347e-05 1.7631702949e-07 
2.5243496483e-06 -1.7633028332e-05 1.8445746314e-07 2.5190274873e-06 -1.6457422778e-05 1.7213739313e-07 2.5250001236e-06 -1.8415741784e-05 1.9259502258e-07 
2.5256343228e-06 -1.9198657014e-05 2.0073014747e-07 2.5203620595e-06 -1.80224319e-05 1.8842277285e-07 2.5262522696e-06 -1.998176786e-05 2.08865966e-07 
2.5268531753e-06 -2.0765069055e-05 2.1700156535e-07 2.5216317343e-06 -1.9588260609e-05 2.0469983322e-07 2.5274370646e-06 -2.1548555628e-05 2.2513684121e-07 
2.5280046425e-06 -2.2332222357e-05 2.3327078507e-07 2.5228338359e-06 -2.1154861671e-05 2.2097635063e-07 2.5285559048e-06 -2.3116063708e-05 2.4140592302e-07 
2.5290901297e-06 -2.3900074474e-05 2.4954117067e-07 2.5239690746e-06 -2.2722193116e-05 2.372507225e-07 2.5296073131e-06 -2.468424973e-05 2.5767626697e-07 
2.5301081546e-06 -2.5468584263e-05 2.6581010961e-07 2.525037544e-06 -2.429021321e-05 2.5352646939e-07 2.5305926538e-06 -2.6253072548e-05 2.7394519531e-07 
2.5310601083e-06 -2.7037709376e-05 2.8208041634e-07 2.5260392334e-06 -2.5858880232e-05 2.6980063479e-07 2.5315105177e-06 -2.7822489821e-05 2.9021549891e-07 
2.531944583e-06 -2.8607408674e-05 2.9834933392e-07 2.5269741438e-06 -2.742815244e-05 2.8607632496e-07 2.5323623041e-06 -2.9392460411e-05 3.0648441571e-07 
2.5327629799e-06 -3.0177639821e-05 3.1461963474e-07 2.5278422749e-06 -2.8997988099e-05 3.0235047476e-07 2.5331466102e-06 -3.096294198e-05 3.2275471619e-07 
2.5335138952e-06 -3.1748361679e-05 3.3088854996e-07 2.5286436266e-06 -3.0568345472e-05 3.1862616076e-07 2.5338648331e-06 -3.2533893391e-05 3.390236325e-07 
2.5341987299e-06 -3.3319531904e-05 3.4715884983e-07 2.529378197e-06 -3.213918282e-05 3.3490030913e-07 2.5345155897e-06 -3.4105272299e-05 3.5529392419e-07 
2.5348160938e-06 -3.4891109377e-05 3.6342775945e-07 2.5300459907e-06 -3.3710458401e-05 3.511759919e-07 2.5351002447e-06 -3.5677037588e-05 3.7156283581e-07 
2.5353673501e-06 -3.646305173e-05 3.7969805136e-07 2.5306470013e-06 -3.5282130495e-05 3.6745013288e-07 2.5356174083e-06 -3.7249146866e-05 3.8783312368e-07 
2.5358511457e-06 -3.803531777e-05 3.9596695848e-07 2.5311812182e-06 -3.6854157329e-05 3.8372580918e-07 2.5360685874e-06 -3.8821558954e-05 4.0410205501e-07 
2.5362690654e-06 -3.9607865228e-05 4.1223723909e-07 2.5316487065e-06 -3.842649709e-05 3.9999994235e-07 2.5364435714e-06 -4.0353290777e-05 4.1994870518e-07 
2.5366118202e-06 -4.1139709924e-05 4.2808272145e-07 2.5320402381e-06 -3.9958168746e-05 4.1585185597e-07 2.5323858295e-06 -4.1571949692e-05 4.3254947861e-07 
2.5279862271e-06 -4.1135838254e-05 4.2803190006e-07 2.2509193078e-06 -2.2749196781e-06 -1.9600385529e-08 2.4511667326e-06 -3.6329934669e-06 2.9964625051e-08 
2.3834282293e-06 -2.9104617983e-06 1.2533191874e-08 2.4845391133e-06 -5.1597747239e-06 5.386599659e-08 2.4730806538e-06 -4.3917715622e-06 4.2618515577e-08 
2.4942352697e-06 -6.7069824477e-06 6.9731741597e-08 2.4902436481e-06 -5.9324797521e-06 6.1924488312e-08 2.5002839222e-06 -8.2601940569e-06 8.5973964704e-08 
2.4975358856e-06 -7.4830353459e-06 7.7781252287e-08 2.5047858146e-06 -9.8168666667e-06 1.0219477128e-07 2.5028358096e-06 -9.0381253486e-06 9.4018315865e-08 
2.5083259765e-06 -1.1376305654e-05 1.1898231463e-07 2.5065745388e-06 -1.059628871e-05 1.1067463119e-07 2.5112071377e-06 -1.2937590832e-05 1.3534291331e-07 
2.5098706932e-06 -1.2156763796e-05 1.2712482233e-07 2.5130029794e-06 -1.4500427911e-05 1.5160147554e-07 2.512390829e-06 -1.3718796121e-05 1.4331988878e-07 
2.5143619536e-06 -1.6064356589e-05 1.6795874749e-07 2.5136750522e-06 -1.5282283537e-05 1.5981078793e-07 2.515719569e-06 -1.762915538e-05 1.8424746662e-07 
2.5150491072e-06 -1.6846648666e-05 1.7610206655e-07 2.5170079741e-06 -1.9194785191e-05 2.0053127792e-07 2.5163727966e-06 -1.8411869818e-05 1.9239014605e-07 
2.518226825e-06 -2.076119794e-05 2.1681337044e-07 2.517625646e-06 -1.9977896326e-05 2.0867186832e-07 2.5193792047e-06 -2.2328351046e-05 2.3309321391e-07 
2.5188115487e-06 -2.1544684586e-05 2.2495341133e-07 2.5204640507e-06 -2.3896203492e-05 2.4937421571e-07 2.5199298041e-06 -2.3112192416e-05 2.4123310311e-07 
2.5214827928e-06 -2.5464712989e-05 2.6565377291e-07 2.5209819454e-06 -2.4680378753e-05 2.5751406683e-07 2.5224340501e-06 -2.7033838404e-05 2.8193469746e-07 
2.521966594e-06 -2.6249201276e-05 2.7379361256e-07 2.523319227e-06 -2.8603537403e-05 2.9821423297e-07 2.5228851613e-06 -2.781861885e-05 2.900745342e-07 
2.5241369235e-06 -3.017376885e-05 3.1449515183e-07 2.5237362475e-06 -2.938858914e-05 3.0635406889e-07 2.5248885404e-06 -3.1744490407e-05 3.3077468581e-07 
2.5245212549e-06 -3.0959071009e-05 3.2263498768e-07 2.5255726751e-06 -3.3315660935e-05 3.4705560372e-07 2.5252387799e-06 -3.253002212e-05 3.3891452147e-07 
2.5261907336e-06 -3.48872381e-05 3.6333512912e-07 2.5258902274e-06 -3.4101401332e-05 3.5519543371e-07 2.5267413096e-06 -3.645918076e-05 3.7961604051e-07 
2.5264741966e-06 -3.567316631e-05 3.7147496546e-07 2.5272257837e-06 -3.803144649e-05 3.958955478e-07 2.5269920536e-06 -3.7245275891e-05 3.8775586307e-07 
2.5276431526e-06 -3.9603994253e-05 4.1217632108e-07 2.5274425808e-06 -3.8817687653e-05 4.0403538239e-07 2.5278182099e-06 -4.0349419769e-05 4.1989232499e-07 
2.5330561394e-06 -4.7078087893e-05 4.8951215091e-07 2.5331338444e-06 -4.8651436316e-05 5.0578723963e-07 2.5331790116e-06 -5.0224809729e-05 5.2206209834e-07 
2.5331992601e-06 -5.1716277297e-05 5.3748972537e-07 2.5329426854e-06 -4.5586695057e-05 4.7408471429e-07 2.537075938e-06 -4.3933498545e-05 4.5697672649e-07 
2.5375201901e-06 -5.337350159e-05 5.546106885e-07 2.5284501532e-06 -4.392962737e-05 4.5694794212e-07 2.528894503e-06 -5.3369630471e-05 5.5461324993e-07 
2.537213965e-06 -4.5154361622e-05 4.6960323422e-07 2.5372855567e-06 -4.5940995653e-05 4.7773856303e-07 2.5328564686e-06 -4.4718165137e-05 4.6510014784e-07 
2.5285884649e-06 -4.515049047e-05 4.6958148976e-07 2.537342201e-06 -4.6686692361e-05 4.8545072749e-07 2.5373916366e-06 -4.7473356729e-05 4.9358607072e-07 
2.5330040307e-06 -4.6332384345e-05 4.8179841937e-07 2.537430584e-06 -4.8260031437e-05 5.0172228406e-07 2.5374603825e-06 -4.9046713383e-05 5.0985846391e-07 
2.5330990905e-06 -4.7864757946e-05 4.9764969706e-07 2.537482659e-06 -4.9833400515e-05 5.1799490512e-07 2.5374987491e-06 -5.0620090354e-05 5.2613117317e-07 
2.5331596428e-06 -4.9438121022e-05 5.13924678e-07 2.5375087194e-06 -5.1365824327e-05 5.3384436753e-07 2.5375152013e-06 -5.2152514165e-05 5.4198121999e-07 
2.5331909139e-06 -5.0970543736e-05 5.2977591841e-07 2.5332046647e-06 -5.2584879099e-05 5.4647452355e-07 2.5288893609e-06 -5.2148643015e-05 5.4198301102e-07 
2.5286599685e-06 -4.5937124447e-05 4.7772096792e-07 2.528765825e-06 -4.7469485454e-05 4.9357579408e-07 2.5287166559e-06 -4.6682821065e-05 4.8543625633e-07 
2.5288346542e-06 -4.9042842188e-05 5.0985345219e-07 2.5288047915e-06 -4.8256160223e-05 5.0171462743e-07 2.5288729886e-06 -5.0616219118e-05 5.2613051232e-07 
2.5288569611e-06 -4.9829529332e-05 5.1799188535e-07 2.5288829435e-06 -5.1361953162e-05 5.338449265e-07 6.4516900352e-07 -5.4158232475e-05 5.7151429132e-07 
-6.1352116322e-07 -5.4158225975e-05 5.7735753977e-07 1.6900765129e-06 -5.4158242289e-05 5.6666352474e-07 -1.6584285701e-06 -5.4158224887e-05 5.8220826933e-07 
2.1159556847e-06 -5.4160182405e-05 5.6470512377e-07 1.4866084077e-06 -5.4160175767e-05 5.6762686823e-07 2.1116428347e-06 -5.4158246697e-05 5.6470648292e-07 
-1.4463347458e-06 -5.4160160581e-05 5.8124362635e-07 -2.0756821051e-06 -5.4160160753e-05 5.8416536068e-07 -2.0799949551e-06 -5.4158225021e-05 5.8416529052e-07 
1.4779826788e-06 -5.4156304626e-05 5.6762933416e-07 2.1073299555e-06 -5.4156311259e-05 5.6470783723e-07 -2.0843078007e-06 -5.4156289626e-05 5.8416521784e-07 
-1.4549604487e-06 -5.4156289458e-05 5.8124377819e-07 9.641545531e-07 -5.416017071e-05 5.7005239382e-07 3.3480929109e-07 -5.416016583e-05 5.7297430487e-07 
1.1676223095e-06 -5.4158237061e-05 5.6908891403e-07 -2.9453566313e-07 -5.4160162603e-05 5.7589620456e-07 -9.2388096757e-07 -5.4160160917e-05 5.7881813965e-07 
1.5823890808e-08 -5.4158228469e-05 5.7443591732e-07 -1.1359743755e-06 -5.4158225102e-05 5.7978290975e-07 3.261835914e-07 -5.4156294677e-05 5.7297591501e-07 
9.555288333e-07 -5.4156299561e-05 5.7005458539e-07 -9.3250666792e-07 -5.4156289789e-05 5.7881853262e-07 -3.0316135074e-07 -5.4156291456e-05 5.7589724968e-07 
-2.5013200754e-06 -4.5586668907e-05 4.9745796197e-07 -2.5014300229e-06 -4.707806155e-05 5.1288572634e-07 -2.5015030544e-06 -4.8651410135e-05 5.2916035771e-07 
-2.5015433413e-06 -5.0224783732e-05 5.4543524557e-07 -2.5015587348e-06 -5.171625145e-05 5.6086274445e-07 -2.4972490697e-06 -5.3373475571e-05 5.7798485226e-07 
-2.4968285605e-06 -4.3933476622e-05 4.8031992142e-07 -2.50545486e-06 -4.392960534e-05 4.8035151909e-07 -2.5058747653e-06 -5.3369604438e-05 5.779848648e-07 
-2.5012352135e-06 -4.4718139744e-05 4.8847330642e-07 -2.4970365925e-06 -4.5940969363e-05 5.0109286662e-07 -2.4969665978e-06 -4.5154335827e-05 4.9295319622e-07 
-2.5055920758e-06 -4.51504645e-05 4.929779433e-07 -2.4971387114e-06 -4.7473330434e-05 5.1694791643e-07 -2.4970914344e-06 -4.6686666012e-05 5.0880833383e-07 
-2.5013798176e-06 -4.6332357944e-05 5.0517187317e-07 -2.4972027121e-06 -4.9046687192e-05 5.3322525871e-07 -2.4971753256e-06 -4.8260005224e-05 5.2508657768e-07 
-2.5014706701e-06 -4.7864731688e-05 5.2102304086e-07 -2.4972362184e-06 -5.0620064263e-05 5.495022842e-07 -2.4972225639e-06 -4.9833374409e-05 5.4136370683e-07 
-2.5015264232e-06 -4.9438094922e-05 5.3729775885e-07 -2.4972476754e-06 -5.2152488103e-05 5.653546866e-07 -2.4972438119e-06 -5.1365798262e-05 5.5721667295e-07 
-2.5015528701e-06 -5.0970517659e-05 5.5314897154e-07 -2.5015617355e-06 -5.2584852997e-05 5.6984744415e-07 -2.5058733995e-06 -5.2148616971e-05 5.6535548445e-07 
-2.5056623119e-06 -4.5937098036e-05 5.0111329247e-07 -2.5057172475e-06 -4.6682794619e-05 5.0882556018e-07 -2.5057642522e-06 -4.7469459125e-05 5.1696082254e-07 
-2.5058008718e-06 -4.8256134005e-05 5.2509683696e-07 -2.5058283318e-06 -4.9042816096e-05 5.3323285957e-07 -2.505848199e-06 -4.9829503297e-05 5.413693263e-07 
-2.5058618309e-06 -5.0616193057e-05 5.4950554441e-07 -2.5058694392e-06 -5.1361927093e-05 5.572186812e-07 3.7317264549e-09 -2.3328206327e-09 -1.4353297623e-10 
3.7557921077e-09 -1.5484888182e-09 -9.3157980873e-11 3.5760466826e-09 -2.9010477121e-10 -3.5624499904e-11 8.2382580552e-10 -1.619552929e-09 2.8895713817e-12 
-6.2957915868e-10 -1.8971847262e-09 4.0939552762e-11 2.313719e-09 1.7227668701e-09 7.5591497514e-12 1.0376728691e-10 -2.2933808691e-09 6.5566044574e-11 
-5.8726549715e-10 -6.682635313e-10 5.1778626635e-12 3.8557311318e-09 -3.1658819785e-09 -1.9249005488e-10 3.6728844696e-09 -3.1857458297e-09 -1.7300621866e-10 
3.9071441268e-09 -2.8545428349e-09 -1.9773840341e-10 3.4815075559e-09 -2.5901690563e-09 -1.1958665918e-10 3.7098133219e-09 -2.613515927e-09 -1.3688474029e-10 
3.975428058e-09 -3.1154951931e-09 -2.7124267082e-10 3.8119606541e-09 -3.1262611298e-09 -2.4773494264e-10 3.791337469e-09 -2.5760168552e-09 -1.9291549393e-10 
3.5636042611e-09 -2.5381767292e-09 -1.7786873988e-10 3.0858324629e-09 -2.3300561383e-09 -1.0842464518e-10 2.8433483551e-09 -1.9164285773e-09 -8.1405925223e-11 
3.3419421379e-09 -2.1215064081e-09 -1.3411124691e-10 3.2875512026e-09 -2.1633756667e-09 -9.0915066363e-11 2.5563934921e-09 -1.9419322718e-09 -6.9340627159e-11 
2.3425737047e-09 -8.4930548991e-10 -3.4274325082e-11 2.7603608763e-09 -1.121687044e-09 -5.2390099016e-11 2.5387850063e-09 -1.165333985e-09 -4.9156031006e-11 
2.1672073563e-09 -8.8345745423e-10 -3.2559029321e-11 1.988996839e-09 -7.4639464872e-10 -4.4201499956e-12 2.1337548444e-09 -6.9100150499e-10 -5.9442845201e-11 
2.0084532481e-09 -7.239396598e-10 -3.5594845247e-11 3.1959891359e-09 -1.1654054572e-09 -8.3661152465e-11 3.1664516843e-09 -1.1866570924e-09 -4.2459879438e-11 
2.5660957866e-09 -7.9769505566e-10 -3.7092479242e-11 2.9889077944e-09 -6.0812372943e-10 -6.9856815663e-11 2.9628112461e-09 -6.242125295e-10 -3.6149732911e-12 
3.6375116232e-09 -9.7559963947e-10 -6.2086519646e-11 2.5949406466e-09 -1.6421541344e-09 -6.423242886e-11 2.2645287106e-09 -1.1180398362e-09 -3.8991756499e-11 
2.1970230136e-09 -1.9690584711e-09 -5.453901393e-11 1.7450811533e-09 -1.7147599848e-09 -3.1838572101e-11 1.5012172781e-09 -1.7732275931e-09 -2.4400104003e-11 
1.0936169236e-09 -1.5699743824e-09 -1.7806814685e-11 1.5007772977e-09 -1.725736664e-09 -1.8877333197e-11 2.8929448398e-09 -1.6822436649e-09 -7.5958462157e-11 
3.3359984144e-09 -1.9135600127e-09 -8.2892560125e-11 1.4537486712e-11 -1.1448607653e-09 1.3792303049e-11 4.1143193125e-11 -1.1599595912e-09 -4.4983368306e-13 
7.3395858546e-11 -1.495278228e-09 1.8509057276e-11 -3.504247559e-10 -1.6822193749e-09 6.5502302266e-11 -3.1534775544e-10 -1.69300886e-09 -8.7405491774e-13 
-2.8220169833e-10 -1.3404184186e-09 1.7940163761e-11 2.2931146643e-09 -1.6715088208e-09 -5.3861805225e-11 2.3589763832e-09 -1.3815250327e-09 -4.8360893644e-11 
7.6331248802e-11 -1.8695570836e-09 6.4218868436e-11 1.1948787496e-10 -1.8970255819e-09 6.9381789608e-12 -3.6850479007e-10 -2.1238715344e-09 5.5066867829e-11 
2.1140174359e-09 -5.0516611187e-10 -8.655211117e-11 1.8167330977e-09 -2.3351959121e-10 -1.7567097598e-10 2.8745423337e-09 -3.045693663e-10 -5.9080433793e-11 
2.5096242692e-09 -3.5238803597e-10 -1.9947534984e-11 1.7970566071e-09 -2.4791836524e-10 1.5635240008e-10 2.0905249102e-09 -5.2370523511e-10 4.8773326393e-11 
2.8516648946e-09 -3.1717493443e-10 9.1740456788e-12 1.9316732041e-09 -1.5286525165e-09 -3.8180381159e-11 2.0474604003e-09 -1.2343678689e-09 -3.5562212936e-11 
2.1097836117e-09 -7.0980165362e-10 1.2584859629e-11 2.6499754473e-09 -1.4226191892e-09 -5.9316019404e-11 3.54241067e-09 -2.322076515e-09 -1.1168325985e-10 
3.6090321334e-09 -2.2849604851e-09 -1.5735887772e-10 2.064752767e-09 -9.6087205637e-10 -2.3671861565e-11 3.3519577983e-09 -2.8051904885e-09 -1.4248821728e-10 
3.2081022418e-09 -2.9002951313e-09 -1.2847647423e-10 3.0128517146e-09 -2.9247967517e-09 -1.0735279039e-10 2.5334241327e-09 -2.4212008422e-09 -7.6017690322e-11 
2.8208126095e-09 -2.3592254778e-09 -9.5757429755e-11 2.0845033541e-09 -9.3393990783e-10 -3.6589487873e-11 2.9472500399e-09 -1.4629764575e-09 -6.849673414e-11 
3.9171025937e-09 -3.5422077814e-09 -2.6936533891e-10 3.7979230155e-09 -3.1427617716e-09 -2.8941663379e-10 3.701611919e-09 -3.1927128872e-09 -2.0925548066e-10 
3.8354532426e-09 -3.8124250403e-09 -2.5868680405e-10 3.8754626515e-09 -3.2716969061e-09 -3.4350257987e-10 3.3042103482e-09 -3.7555848199e-10 -1.8912141841e-11 
3.3297674408e-09 -3.6225865719e-10 -4.8813683609e-11 3.5693599056e-09 -3.4486840314e-09 -1.0150031595e-10 3.5961832662e-09 -3.5721047502e-09 -3.3628586819e-11 
3.8960255139e-09 -4.1297410805e-09 -2.7163474512e-10 3.612992631e-09 -3.545109982e-09 -1.4998678235e-10 3.610140595e-09 -3.4006800093e-09 -1.6049399943e-10 
1.7405866554e-09 -1.1092108836e-09 -2.5143451664e-11 3.5630413521e-09 -3.2636839498e-09 -1.5851067279e-10 -2.8139845224e-10 -5.2754846089e-11 -9.7159529245e-13 
-2.1754427799e-10 -2.7020359024e-11 -8.8694069324e-13 -3.2426326321e-10 -3.221666684e-11 2.3311347696e-11 -1.3757922082e-10 -1.6011209379e-11 9.7882497065e-12 
-3.9496135689e-10 -6.0727827203e-11 2.4362949922e-11 -1.3736544411e-10 -1.5716664776e-11 -1.0876337045e-11 -3.9362899431e-10 -5.9908579916e-11 -2.6853207508e-11 
-3.2342047681e-10 -3.167817582e-11 -2.542296023e-11 3.3213731617e-09 -1.5345550768e-09 -6.6043266955e-11 3.663463177e-09 -1.3692136405e-09 -6.8216164383e-11 
3.5587751366e-09 -7.8066876265e-10 -3.7436446175e-11 3.6991337778e-09 -1.3497821868e-09 -9.5651464284e-11 3.5886012058e-09 -7.630083605e-10 -6.8225901311e-11 
3.3869008954e-09 -1.8815784846e-09 -1.2216411229e-10 1.7964151368e-09 -1.9586248202e-09 -3.5165619617e-11 1.344477435e-09 -1.9764453915e-09 -1.1574230103e-11 
1.053072916e-09 -1.7661680706e-09 1.1181151642e-11 1.0720593825e-09 -1.8103977564e-09 -1.5142780932e-11 1.5951515039e-09 -9.4191483537e-10 -3.3621745674e-11 
1.6017981595e-09 -9.1163260833e-10 -2.9354865383e-12 1.1714300054e-09 -1.1768234795e-09 -1.2049096231e-11 1.3299450215e-09 -1.3303142546e-09 -6.2406385666e-12 
1.3334479709e-09 -1.3643370887e-09 -2.638190463e-11 4.0265920627e-09 -3.4399384672e-09 -3.143265297e-10 3.9076412352e-09 -3.4829027311e-09 -2.4785462342e-10 
6.8207589255e-10 -2.0663393106e-09 5.2875886497e-11 7.2844144299e-10 -2.124677559e-09 -4.8505187166e-12 4.9728380489e-10 -1.9308306488e-09 2.5975210345e-11 
1.3801487678e-09 -2.7660578885e-10 2.5499426932e-10 1.7908761215e-09 5.0761394384e-10 5.7064153815e-11 2.3638505555e-09 -1.9441300131e-10 -1.3780121448e-11 
3.1630810967e-09 1.5269042971e-10 2.2867824672e-11 1.8076353383e-09 5.1364769916e-10 -6.0090219331e-11 1.3954617871e-09 -2.7047977548e-10 -2.6537542165e-10 
3.1856956929e-09 1.6341425216e-10 -6.0105525892e-11 1.470612299e-09 -2.2300080196e-09 -1.7640560071e-11 4.1462019408e-09 -1.4214324799e-09 -9.8629311625e-11 
4.1314371412e-09 -1.358133995e-09 -9.012070006e-11 4.1258277943e-09 -1.154555561e-09 -8.1345199713e-11 4.1661932533e-10 -1.5647185694e-09 -2.8721133796e-12 
3.8695417839e-10 -1.538260126e-09 2.9154457954e-11 -9.1203316167e-11 -1.0133741218e-09 -1.0076344176e-11 -1.7189901907e-10 -9.0023621297e-10 -2.8471441129e-11 
-3.9236140269e-10 -1.5166587983e-09 -3.6110016792e-12 -3.6160560198e-10 -1.2114227839e-09 1.4517550565e-11 -1.9235545888e-10 -8.9192177388e-10 3.3434093433e-11 
-1.1601169239e-10 -1.0019109898e-09 1.7224155833e-11 -4.2240654311e-10 -1.5089738947e-09 5.4887578893e-11 2.3589301809e-09 -2.6654430378e-09 -7.4643370914e-11 
3.8324453036e-09 -3.3027812563e-09 -3.8425524488e-10 -6.9971898909e-10 -2.4442894051e-09 3.5676879327e-11 -7.38082957e-10 -2.4362159365e-09 9.8751336275e-11 
-8.2700430067e-10 -3.1065927134e-09 8.9193621341e-11 -5.1829567698e-10 -2.7339990699e-09 5.0798739171e-11 -5.6147536716e-10 -2.7214774113e-09 1.4964119146e-10 
3.2765203066e-10 -1.1852726333e-09 -2.1363548196e-12 3.0389307225e-10 -1.1656201526e-09 8.6480753509e-12 7.0827520103e-10 -1.2535116862e-09 -1.8670402418e-12 
3.3606554712e-09 -1.5113503059e-09 -1.0070996889e-10 -8.0127518268e-10 -1.6083033827e-09 -1.1690963576e-11 -8.0783656598e-10 -1.529414471e-09 -3.2517023185e-11 
-8.1656131579e-10 -1.4483624769e-09 -1.2286978729e-11 -5.9002394579e-10 -1.2456883115e-09 1.6438251056e-11 -8.2311097332e-10 -1.6080758318e-09 6.9715397097e-11 
-6.0111008977e-10 -1.5553083413e-09 -1.2234023182e-11 -8.3144921557e-10 -1.9364161209e-09 4.1808509007e-11 -6.2738647939e-10 -1.5520992502e-09 6.6505731249e-11 
-8.3486981865e-10 -1.448373599e-09 5.8767910081e-11 -8.6027027696e-10 -1.8871701383e-09 -6.361800509e-12 -6.6996168129e-10 -1.8524152358e-09 -5.3376987275e-12 
-8.8720578052e-10 -1.8871244472e-09 8.6845412654e-11 -7.0303121888e-10 -1.8501610594e-09 8.3665224897e-11 1.9816171087e-09 -2.2254873999e-09 -4.7588354417e-11 
4.1220871382e-09 -7.2126838492e-10 -6.1944336851e-11 4.1353518786e-09 -4.7926128967e-10 -4.9398260619e-11 3.9537899797e-09 -3.14273666e-09 -2.9857091638e-10 
3.2595928085e-09 -3.1436195806e-09 -3.0982891206e-10 3.2501921179e-09 -3.392422586e-09 -8.8724240466e-11 2.3454553272e-09 -2.8326318228e-09 -1.4003785326e-10 
4.0470976736e-09 -4.0553736827e-09 -1.8309359207e-10 3.2640381395e-09 -3.4267730363e-09 -6.8982679962e-11 2.3925644598e-09 -3.0676191495e-09 2.3111159293e-12 
3.6953992901e-09 -3.8334745787e-09 -7.3703867637e-11 2.3670975869e-09 -3.032387675e-09 -4.9609984321e-11 2.5230946895e-09 1.253116692e-09 -1.8900219391e-11 
1.4182291767e-09 1.032265597e-09 2.7274137897e-12 3.0795811229e-09 4.8214818029e-10 -1.1303911032e-11 2.5034114792e-09 1.2440577149e-09 2.2256351952e-11 
3.7365320162e-09 -3.2358608036e-09 -1.7542806246e-10 -8.3890348987e-10 -1.5425447921e-09 8.7049134725e-11 -1.7103647853e-10 -3.798325509e-11 7.9939263848e-12 
-4.623914398e-10 -1.1550076794e-10 2.3312044078e-11 3.9154031126e-09 -2.928978566e-09 -1.7756609657e-10 3.9563065823e-09 -2.6415909019e-09 -1.8132544386e-10 
4.0075194417e-09 -2.8884182711e-09 -2.434831046e-10 -4.6010861045e-10 -1.1406989812e-10 -2.5585265086e-11 -1.7076089007e-10 -3.7826358296e-11 -9.0320578057e-12 
1.6420199909e-09 -2.5005794439e-09 -1.9103751942e-11 2.6059570194e-09 3.1590243055e-09 2.7397441559e-11 9.2727872138e-10 2.9537809086e-09 3.3553895451e-11 
1.538672008e-09 3.4867577644e-09 3.0057618158e-11 2.7353174934e-09 2.6909001946e-09 1.6586945407e-11 1.0518312413e-09 2.5116418658e-09 2.0921887126e-11 
2.1693047144e-09 2.1711652927e-09 1.3182231006e-11 -8.601211809e-10 -1.7972887028e-09 -3.1884426584e-11 9.1116579461e-10 2.9460519467e-09 1.9561410433e-11 
2.5870495462e-09 3.1508873045e-09 1.6947947012e-11 2.1508619645e-09 2.1625345182e-09 1.2669279202e-11 -8.5266787016e-10 -1.8849320167e-09 -3.6048952238e-11 
1.897980174e-09 -1.0290817742e-09 -2.3252892915e-11 7.0934153007e-10 -2.2975542901e-09 7.2843291049e-11 -3.2731796272e-10 -9.3100079077e-10 -2.8248817849e-11 
-3.4248899617e-10 -9.2624992634e-10 4.2104177834e-11 -8.5429712146e-10 -3.5187383052e-09 1.1352377482e-10 -8.7566081447e-10 -3.381405205e-09 1.4122442944e-10 
-8.6818011086e-10 -3.8289750662e-09 1.7347145474e-10 -1.0857762273e-09 -3.8355610621e-09 1.9177916888e-10 -8.9834846572e-10 -1.8113429491e-09 1.07963388e-10 
4.0256949072e-09 6.4365610311e-10 -3.0053917807e-11 3.5690994425e-09 1.0119449982e-09 -6.2249569864e-12 3.9535745183e-09 3.7362842283e-10 -2.4043735632e-11 
3.6196638125e-09 -1.0310187276e-10 -1.4941005464e-11 3.5909247218e-09 1.0217853298e-09 -1.0608336654e-11 4.0492599918e-09 6.5420182085e-10 -7.7991336934e-12 
3.6443326453e-09 -9.1554816585e-11 -4.5830572076e-11 1.0268842992e-09 4.1106885554e-09 3.9512449114e-11 2.201911603e-09 3.9287157706e-09 3.6396906334e-11 
5.3691121975e-10 3.688012418e-09 3.9113667782e-11 1.6914648245e-09 4.5594733982e-09 4.243098507e-11 -5.5353895755e-10 -1.7622663177e-09 7.4109612241e-11 
-5.1904982568e-10 -1.7685114832e-09 -2.1043678952e-12 -7.3884260602e-10 -5.0115171895e-10 2.8403038734e-11 -7.3329744171e-10 -4.9924540584e-10 -2.3374663192e-11 
-5.2543087659e-10 -3.8588091893e-10 1.2732982748e-12 -5.6403150738e-10 -5.1411445083e-10 2.2211041408e-11 -5.561876348e-10 -5.1136194188e-10 -1.5637585435e-11 
-7.6668390717e-10 -6.247148516e-10 4.1291149994e-12 5.2008789138e-10 3.6802994456e-09 3.5017440229e-11 1.6737847828e-09 4.5515303335e-09 4.0493442504e-11 
2.1839542159e-09 3.9207448539e-09 2.8105332996e-11 1.9990089208e-09 -3.4799160688e-09 -4.2218906396e-11 1.1907964323e-09 -2.8922194103e-09 1.6695975116e-11 
-6.3327006567e-10 -3.1563245405e-10 2.4198126403e-11 -6.2996567716e-10 -3.1656756226e-10 -2.3599715783e-11 -8.9663991695e-10 -1.8848754732e-09 1.1838177004e-10 
-5.0207148114e-10 -2.0999737407e-09 7.6060257819e-12 -1.4129058462e-10 -2.3122309198e-09 1.1822298845e-11 -5.4561910817e-10 -2.0903235967e-09 9.563975161e-11 
-1.9965001847e-10 -2.2788420314e-09 1.2268464884e-10 -5.7258455833e-10 -2.6882183079e-09 -1.2204345469e-11 -7.0443911886e-10 -2.6683813098e-09 2.0523332283e-10 
-1.1988029286e-10 -4.6936129974e-12 1.154538872e-11 -1.8712828155e-10 -9.5862801143e-12 -2.7724445019e-13 -1.197359577e-10 -4.7299662063e-12 -1.1838373431e-11 
4.2514975023e-09 -5.2476888214e-10 -6.7211885567e-11 4.2469197899e-09 -8.7071653084e-10 -7.4939277069e-11 3.7400526621e-09 -4.5446879101e-10 -3.6804704568e-11 
4.1195543867e-09 -3.5971750216e-10 -4.910781099e-11 3.7265239954e-09 -1.9325357317e-09 -1.1643507305e-10 -4.3332315209e-10 -2.1146067837e-10 -4.5273850397e-13 
-5.4791686209e-10 -1.8503781482e-10 2.4022890226e-11 -3.6091129263e-10 -1.151235967e-10 -2.3155629943e-13 -5.4437553045e-10 -1.8236266501e-10 -2.5699768664e-11 
4.0784130723e-09 -1.169678032e-09 -7.6120115024e-11 -1.3457752135e-06 -5.3172572541e-05 5.7056130502e-07 -2.1445344114e-06 -5.3017071817e-05 5.7266084728e-07 
-1.7875076372e-06 -5.3449290154e-05 5.7547428216e-07 1.0203146232e-09 -2.6874063094e-09 1.1817648783e-10 1.3237025692e-10 -2.8355315151e-09 2.7635203834e-10 
1.0110741607e-10 -2.3979130778e-09 1.3520194963e-10 2.6916427091e-11 -2.776491538e-09 1.6929949426e-10 1.2240727431e-09 -2.9424835894e-09 4.2570614858e-11 
2.9540559264e-10 -3.4633308843e-09 1.0697392544e-10 -5.7565680117e-10 -9.6012993293e-10 -2.1311219955e-11 -5.8805236049e-10 -9.5900844087e-10 4.0474713364e-11 
-8.2042112199e-10 -1.1596113908e-09 1.4424156948e-11 -9.5453309187e-10 -3.541376957e-09 1.9858080611e-10 -6.9720119969e-10 -3.5386782951e-09 2.8772493933e-10 
-3.8694532507e-10 -2.8664635272e-09 8.0678723748e-11 -4.5896259811e-10 -2.8224880296e-09 1.8363092905e-10 3.6605507642e-10 -3.057420304e-09 4.349068285e-11 
1.6506595324e-10 -2.4597937449e-09 3.9363402223e-12 7.5474558178e-10 -2.3799985005e-09 2.2725805432e-12 1.0709165073e-10 -2.8827161151e-09 8.2961126422e-11 
-9.526012755e-10 -3.1059023432e-09 1.264273026e-10 -8.5883468551e-10 -3.1047804977e-09 5.7900964061e-11 -8.3569416771e-10 -2.4455534155e-09 6.0277565751e-11 
4.126357327e-09 2.6663832185e-10 -4.6272766047e-11 4.0539323679e-09 3.8463611875e-11 -3.7522440885e-11 3.4533412004e-09 1.4258248201e-09 -1.8115041838e-12 
-2.5711741462e-10 -1.4717088236e-10 3.5140718789e-12 -2.5597382373e-10 -1.4894988026e-10 -3.3424401274e-12 -2.9108762928e-10 -2.241800137e-10 7.0133763092e-14 
-1.970570906e-10 -6.829375978e-11 4.4599117106e-12 -1.9692553448e-10 -6.5623402905e-11 -6.4864859764e-12 6.901170519e-10 5.7348814594e-09 5.9452410867e-11 
1.2553579302e-09 5.1648087198e-09 5.0223856685e-11 2.4091380748e-10 5.5593680054e-09 5.9341304158e-11 8.0573811737e-10 4.9901034488e-09 5.0339453505e-11 
-1.1318988668e-10 5.1659392201e-09 5.6902699653e-11 -3.2019039098e-10 -6.3694392186e-10 1.8206076903e-12 5.9783242161e-10 -1.0687515569e-09 -6.1723535099e-13 
7.1996770842e-10 -1.4497729282e-09 1.3829636153e-11 9.3581244753e-10 -1.2118979005e-09 2.429331389e-12 6.163809458e-10 -1.0924554105e-09 -6.9236933979e-12 
9.4796479778e-10 -1.2399313732e-09 -1.6974880307e-11 7.407343214e-10 -1.4792722746e-09 -9.359137185e-12 1.8383658404e-09 -8.1329603079e-10 -1.3457614829e-11 
1.0786176021e-09 -1.5313780754e-09 2.6751497751e-12 3.6849978846e-09 -3.8881068348e-09 -4.0117553983e-10 3.9603430895e-09 -3.8493725634e-09 -2.9038986126e-10 
4.0448058336e-09 -4.0725268961e-09 -3.0715901334e-10 -2.5420738947e-10 -1.2524953186e-11 -2.3215665782e-11 -7.0208377561e-11 -4.0264580041e-13 -8.0639370685e-12 
-6.9538851373e-10 -2.6128368176e-09 -7.6904343926e-12 -6.2882397439e-10 -2.0482340985e-09 1.1741906947e-12 -8.0376035611e-10 -2.6056776371e-09 1.8001788408e-10 
-6.6923797367e-10 -2.0439697849e-09 9.2135389423e-11 -4.7844564437e-10 -2.8990887623e-09 3.3769168545e-10 -1.7186552412e-06 -5.3805693432e-05 5.7884120141e-07 
-1.7272809458e-06 -5.3801822305e-05 5.7884135832e-07 -1.2769229688e-06 -5.3528976257e-05 5.7392802249e-07 -2.546275695e-10 -1.2858518428e-11 2.1704511664e-11 
-7.0344086503e-11 -2.9200987895e-13 7.8681493704e-12 -7.5062968062e-10 -3.4998773314e-09 9.1817315724e-11 -4.0239746559e-10 -3.5817399154e-09 1.8209597175e-10 
-1.0434170303e-09 -3.6765189958e-09 2.4160900968e-10 3.5707112276e-09 -4.1983540442e-09 -4.7520932057e-10 -2.8754209196e-10 -3.0599200572e-09 -1.3853760547e-11 
-1.9115802753e-08 -5.3536026166e-05 5.6816266695e-07 6.1022868546e-07 -5.3536030004e-05 5.6524128151e-07 6.1885438276e-07 -5.3539901175e-05 5.6523959153e-07 
5.8391395221e-07 -5.291769627e-05 5.5896657848e-07 -1.0490098689e-08 -5.353989733e-05 5.6816144448e-07 -7.7395253917e-10 -2.3393612876e-09 -2.7996207391e-11 
-7.8426447658e-10 -2.1904970191e-09 1.6106684081e-11 1.6688412641e-06 -5.3663913681e-05 5.6164992864e-07 1.1463873037e-06 -5.3663908829e-05 5.6407516853e-07 
1.6562317078e-06 -5.3173455145e-05 5.5663398082e-07 1.1550130357e-06 -5.3667779951e-05 5.640731302e-07 1.6774669919e-06 -5.3667784824e-05 5.6164758546e-07 
2.8710039729e-07 -5.2220976407e-05 5.5313764676e-07 -1.6006474165e-07 -5.2906774719e-05 5.6230747485e-07 -7.5446980783e-07 -5.3528977286e-05 5.7150250015e-07 
4.0003450576e-09 -2.4463205341e-09 -1.5922973351e-10 4.0412895213e-09 -2.1844573344e-09 -1.3943315754e-10 4.0520658406e-09 -2.2587560163e-09 -1.5800264116e-10 
3.0333521857e-10 4.5552930398e-09 4.7410868429e-11 -8.4860175251e-10 -2.3413247682e-09 1.5298925165e-10 -8.1411045362e-10 -2.188646822e-09 9.0585166273e-11 
-1.0998271204e-09 -4.3575948007e-09 2.6863397784e-10 7.1755622667e-10 -3.9556928915e-09 1.7686893852e-10 2.3144134546e-09 -5.1773975666e-09 -2.1064084274e-11 
-2.1800222759e-09 -6.2812135618e-09 6.075489181e-10 3.2066030757e-10 4.5629593382e-09 4.8434441527e-11 -9.8227105232e-10 -2.7821813226e-09 3.4882300851e-11 
-1.7028009201e-06 -5.2740353446e-05 5.677478521e-07 -9.040438992e-07 -5.2895854977e-05 5.6564830186e-07 -8.5315649066e-10 -2.0692593553e-09 -4.6019145826e-12 
-8.2863910849e-10 -2.1281245011e-09 4.9247731606e-11 -8.86072277e-10 -2.0689684776e-09 1.0088793333e-10 1.8248556428e-09 -8.4193559612e-10 -2.626012437e-11 
1.9522077915e-06 -5.180345017e-05 5.4108927432e-07 1.9522001351e-06 -5.1057715656e-05 5.3337492118e-07 1.960826049e-06 -5.1061586885e-05 5.3337475557e-07 
1.3798452755e-06 -5.1894494742e-05 5.4468754428e-07 1.9608334691e-06 -5.1807321303e-05 5.410880578e-07 -4.568767265e-07 -5.2210055591e-05 5.5647852704e-07 
-1.7385555564e-10 7.5001144115e-14 -1.9149684899e-11 -1.142896454e-10 -1.3560573648e-12 3.6968970933e-14 1.376537525e-06 -4.1500409075e-05 4.3717769895e-07 
1.9398017819e-06 -4.0671104641e-05 4.2595968414e-07 1.9689666499e-06 -4.1532909254e-05 4.3478132521e-07 1.7230951929e-06 -4.0746449994e-05 4.2778457484e-07 
1.1307101934e-06 -4.0713953349e-05 4.3018158915e-07 1.1200722079e-06 -5.3045575406e-05 5.5780027385e-07 -1.421357193e-09 -4.1125415912e-09 3.0331688707e-10 
-7.6309554623e-07 -5.3525106154e-05 5.7150332292e-07 -1.0338522963e-09 -2.7881043294e-09 1.1462370963e-10 -1.7392967457e-10 -2.9121467579e-13 1.832034268e-11 
-9.0009201558e-10 -1.1474342705e-09 -1.5534381171e-11 -8.9035943461e-10 -1.278664965e-09 -1.3406640701e-11 -9.1203535637e-10 -1.1486040233e-09 4.353450093e-11 
-9.0431496548e-10 -1.2795459837e-09 4.8743505878e-11 -9.7117702274e-09 -5.152425499e-05 5.4730873109e-07 4.1746577791e-09 1.9767297108e-10 -1.5148714792e-11 
4.0812415008e-09 -3.5742112956e-11 -3.3025356127e-11 1.9403904959e-06 -4.6360081236e-05 4.8483059714e-07 1.9403418937e-06 -4.5614389063e-05 4.7711544455e-07 
1.9694068868e-06 -4.5547657168e-05 4.7630482722e-07 1.3768183817e-06 -4.5575355908e-05 4.7933531312e-07 1.9694566702e-06 -4.6293348067e-05 4.8401714908e-07 
4.0832040167e-09 -1.9616258846e-09 -1.142118141e-10 4.0219478579e-09 -2.2186555974e-09 -1.2749293269e-10 3.7312669056e-09 -2.1075843527e-09 -1.0995820895e-10 
-2.2748058831e-10 -6.6347501582e-10 -4.0471780875e-11 -5.1810449225e-10 -6.9157890965e-10 -1.3441070811e-11 -2.3700436587e-10 -6.6000194778e-10 4.3787713104e-11 
-5.2634540357e-10 -6.9133991045e-10 2.3204082003e-11 -1.9059402544e-06 -5.1634280224e-05 5.5725058642e-07 -1.8973145878e-06 -5.1638151423e-05 5.5724903578e-07 
-1.3016997394e-06 -5.1556180667e-05 5.5363691177e-07 -1.1028725474e-06 -5.222601853e-05 5.5964258807e-07 -1.6984870564e-06 -5.2307988301e-05 5.6325497833e-07 
6.8031016166e-10 -1.7865633052e-09 -7.0008102075e-12 3.1889519119e-10 -2.1230155759e-09 5.2311341458e-12 6.4836781522e-10 -1.74901081e-09 3.2389235866e-11 
2.7007029237e-10 -2.0786703419e-09 7.9191728964e-11 1.5180388641e-06 -5.2533975816e-05 5.5066078702e-07 4.0962852148e-09 -1.7895379191e-09 -1.1407479081e-10 
4.0956670602e-09 -1.8636798593e-09 -1.2687359046e-10 4.8000974355e-09 -5.3510940008e-09 -2.769772953e-10 3.1292556781e-09 -4.3937919008e-09 -5.2882896245e-11 
4.1588728154e-09 -2.304811341e-09 -1.8337044761e-10 4.120983992e-09 -2.5208656921e-09 -2.0971491181e-10 3.8497168127e-09 -2.3838774599e-09 -1.7701512513e-10 
4.014273172e-09 -2.4767989469e-09 -1.7806159585e-10 1.9647171687e-06 -4.1965164014e-05 4.3925490966e-07 3.7860616033e-09 -2.0792811896e-09 -1.4706037184e-10 
3.7971314729e-09 -1.6951438467e-09 -1.1798198795e-10 3.7537353227e-09 -1.7173603224e-09 -8.9875904647e-11 7.5946782579e-09 -9.098293453e-09 4.50521873e-09 
5.1039792443e-08 -4.8190530709e-08 2.2006982103e-08 1.4037700806e-07 -1.3706715762e-07 -4.091844986e-08 1.9294984531e-08 -2.2170968466e-08 -3.2360653165e-09 
4.8979616527e-08 -5.010330622e-08 -2.7040965004e-08 -1.9293085402e-06 -4.8653340114e-05 5.2652044968e-07 -1.3696445609e-06 -4.8644560063e-05 5.2383506875e-07 
-1.9418316193e-06 -4.8642628087e-05 5.2647498745e-07 -1.9418509638e-06 -4.9429314441e-05 5.3461147341e-07 -1.9293276687e-06 -4.9440026419e-05 5.3465880306e-07 
1.9681547075e-06 -4.9428369106e-05 5.1644551471e-07 1.968132917e-06 -4.8641682945e-05 5.0830712835e-07 1.9695650036e-06 -4.8653360417e-05 5.084258829e-07 
1.4045714897e-06 -4.8643609017e-05 5.1094571999e-07 1.9695865749e-06 -4.9440046751e-05 5.1656239247e-07 -1.908722172e-06 -4.5636789168e-05 4.9523377113e-07 
-1.9087683911e-06 -4.6382481704e-05 5.0294622149e-07 -1.9292071107e-06 -4.6293327512e-05 5.0210444861e-07 -1.3365738512e-06 -4.5597762008e-05 4.9216525693e-07 
-1.9291593e-06 -4.554763677e-05 4.9438912348e-07 -1.872832928e-06 -3.2451158152e-06 6.2829544614e-08 -1.814740129e-06 -2.5578719744e-06 6.6722120355e-08 
-1.8445857854e-06 -2.881134123e-06 4.957713904e-08 -1.7071126556e-06 -5.230411722e-05 5.6325602106e-07 -1.8342918382e-09 -5.2060362225e-09 5.5763903335e-10 
-1.2198277512e-09 -4.2224430671e-09 4.0123847096e-10 -1.8930219532e-09 -5.4688059117e-09 6.6886761739e-10 -1.9081523351e-06 -4.0649590478e-05 4.4364912317e-07 
-1.6249100653e-06 -4.1251289996e-05 4.4855526562e-07 -1.6901553735e-06 -4.0746450498e-05 4.4360032308e-07 -8.1446255705e-07 -4.1294148012e-05 4.4521901353e-07 
-1.0977371448e-06 -4.0692439735e-05 4.4030828086e-07 2.0904024714e-06 -5.2442931327e-05 5.4706276697e-07 2.099028232e-06 -5.244680249e-05 5.4706097493e-07 
-1.9418053026e-06 -4.7855947621e-05 5.1833881306e-07 -1.9292825654e-06 -4.7866659755e-05 5.1838188798e-07 1.850622993e-06 -2.5204912643e-06 5.6436523117e-08 
1.7368653033e-06 -1.8811260859e-06 5.7135852483e-08 1.3301166221e-06 -2.4965087829e-06 3.2547553434e-08 1.8341956312e-06 -2.5616911344e-06 1.0569944283e-08 
1.894522828e-06 -3.2466400706e-06 2.881293263e-08 1.9681041363e-06 -4.7855002601e-05 5.001684251e-07 1.9695366343e-06 -4.7866680144e-05 5.0028955302e-07 
-6.5570504528e-07 -5.1540216983e-05 5.50472828e-07 1.1310378164e-06 -4.6361999062e-05 4.8861402346e-07 1.7236736723e-06 -4.7080002277e-05 4.9329393648e-07 
-1.5459027006e-09 -4.7945681171e-09 4.9649916127e-10 1.939672469e-06 -3.9925654313e-05 4.1824407414e-07 1.9687061963e-06 -3.996006633e-05 4.1851074362e-07 
1.9685652189e-06 -3.9214665771e-05 4.1079877081e-07 1.3763552746e-06 -3.9927566116e-05 4.209027223e-07 1.9610569841e-06 -3.8421168907e-05 4.0256912301e-07 
1.9608827001e-06 -3.7634959519e-05 3.9442976099e-07 1.9684031587e-06 -3.8428388199e-05 4.0266321829e-07 1.3978263233e-06 -3.8423076301e-05 4.0523245999e-07 
-9.9007827808e-10 -3.5832925645e-09 1.7234177504e-10 1.3378251035e-09 -8.6566237309e-09 3.8324497344e-10 4.5417313273e-10 -2.0917083158e-08 1.5762394612e-09 
-2.5785976621e-09 -1.0315160981e-08 -5.2470407759e-11 -1.9285470958e-06 -1.8803180775e-05 2.173801767e-07 -1.9290318107e-06 -1.9586197858e-05 2.255149677e-07 
-1.9208790296e-06 -2.0373279521e-05 2.3350176909e-07 -1.3594353435e-06 -1.9588053432e-05 2.2280198123e-07 -1.9204069047e-06 -1.9590069683e-05 2.2536279622e-07 
-1.9304094835e-06 -2.1936386578e-05 2.4992026656e-07 -1.9308421992e-06 -2.2720144326e-05 2.58055751e-07 -1.9226371431e-06 -2.3507945578e-05 2.6605942193e-07 
-1.3607180561e-06 -2.2722008323e-05 2.5535131466e-07 -1.9222165545e-06 -2.2724015689e-05 2.579200745e-07 -1.9344622671e-06 -3.0566331178e-05 3.3940944085e-07 
-1.9347535852e-06 -3.1351695789e-05 3.4754497957e-07 -1.9255331585e-06 -2.978495748e-05 3.311755016e-07 -1.9258365613e-06 -3.0570202097e-05 3.3931488004e-07 
-1.3632835794e-06 -3.0568216676e-05 3.3672615812e-07 -1.9331693956e-06 -2.7426124438e-05 3.0686783059e-07 -1.9335124286e-06 -2.8210977771e-05 3.1500336835e-07 
-1.9245436909e-06 -2.7429995357e-05 3.0675682475e-07 -1.3623673202e-06 -2.7428001247e-05 3.0417632512e-07 -1.9241885739e-06 -2.6645282887e-05 2.9861744735e-07 
-1.9316696574e-06 -2.4288171494e-05 2.7432623595e-07 -1.9320644093e-06 -2.5072430076e-05 2.8246176571e-07 -1.9230439684e-06 -2.4292042423e-05 2.7419878547e-07 
-1.3613044591e-06 -2.4290039619e-05 2.7162650212e-07 -1.9324453863e-06 -2.5856845171e-05 2.9059729997e-07 -1.923819685e-06 -2.5860716498e-05 2.9047807121e-07 
-1.3618542154e-06 -2.5858717839e-05 2.8790110894e-07 -1.9299629628e-06 -2.1152806185e-05 2.4178484113e-07 -1.9213374792e-06 -2.1156677244e-05 2.416409539e-07 
-1.3600949846e-06 -2.1154665686e-05 2.3907681217e-07 -1.9338416889e-06 -2.8995966749e-05 3.2313890648e-07 -1.3628437751e-06 -2.8997848105e-05 3.2045093981e-07 
-1.9252159833e-06 -2.8999838073e-05 3.2303612321e-07 -1.8937726531e-06 -4.7750032976e-06 6.8091236963e-08 -1.8844706351e-06 -4.0074117864e-06 5.8644061341e-08 
-1.8912081894e-06 -4.0037101271e-06 6.6152181019e-08 -1.3342769763e-06 -4.0025132283e-06 5.9360054563e-08 -1.9189156827e-06 -1.7241620684e-05 2.009488169e-07 
-1.9183956112e-06 -1.6459220073e-05 1.9281520461e-07 -1.9270105267e-06 -1.6455341583e-05 1.9298287233e-07 -1.9264660094e-06 -1.5673151127e-05 1.8484913895e-07 
-1.358006505e-06 -1.6457189811e-05 1.9026008317e-07 -1.914102791e-06 -1.176982842e-05 1.4366705946e-07 -1.9129029011e-06 -1.0989577364e-05 1.3559521464e-07 
-1.9238230268e-06 -1.2546742434e-05 1.5233674314e-07 -1.9226411217e-06 -1.1765991662e-05 1.4417861788e-07 -1.3548068775e-06 -1.1767736136e-05 1.4136538797e-07 
-1.9280481983e-06 -1.8020361721e-05 2.092461611e-07 -1.3587393309e-06 -1.8022213606e-05 2.0652882106e-07 -1.9194252649e-06 -1.8024234415e-05 2.0908571736e-07 
-1.9350311305e-06 -3.2137175179e-05 3.5568051811e-07 -1.9264054247e-06 -3.2141046501e-05 3.5559417913e-07 -1.9266708876e-06 -3.2926635449e-05 3.6373355905e-07 
-1.3636867327e-06 -3.2139065224e-05 3.5300077285e-07 -1.8972148438e-06 -5.5479547009e-06 7.7465451407e-08 -1.9100675356e-06 -6.3182715684e-06 8.7567616925e-08 
-1.9064563226e-06 -5.5441486536e-06 7.9257784631e-08 -1.342914852e-06 -5.5447815898e-06 7.6207316172e-08 -1.9064117356e-06 -7.8744606968e-06 1.0293465475e-07 
-1.9037210368e-06 -7.0976122374e-06 9.4501429795e-08 -1.9126951119e-06 -7.0937851909e-06 9.5818564077e-08 -1.3476827746e-06 -7.0951508148e-06 9.2599720008e-08 
-1.9117855678e-06 -1.0209846373e-05 1.2764376719e-07 -1.9185933907e-06 -9.4268018098e-06 1.2033867613e-07 -1.3530713015e-06 -1.0207633911e-05 1.2520930227e-07 
-1.9200216983e-06 -1.0205915638e-05 1.2815199275e-07 -1.9173271123e-06 -1.4895083534e-05 1.7655799359e-07 -1.9167280361e-06 -1.4113286406e-05 1.6845552356e-07 
-1.9259193133e-06 -1.4891194889e-05 1.7673113862e-07 -1.357197004e-06 -1.4893012538e-05 1.7399957259e-07 -1.9367893819e-06 -3.8424517102e-05 4.2076378373e-07 
-1.3649328711e-06 -3.8426424524e-05 4.1810046962e-07 -1.9283256721e-06 -3.9214666129e-05 4.2884973177e-07 -1.9281636891e-06 -3.8428388439e-05 4.2071034455e-07 
-1.9366153124e-06 -3.7638307284e-05 4.1262823182e-07 -4.8533514874e-07 -5.0827177322e-05 5.4230632008e-07 1.0649034352e-08 -5.0142638411e-05 5.3292292307e-07 
4.8627259556e-07 -5.0839717142e-05 5.3792544465e-07 -1.9364274427e-06 -3.6852170501e-05 4.0449267587e-07 -1.927801726e-06 -3.6856041431e-05 4.0443100737e-07 
-1.3646762924e-06 -3.6854073378e-05 4.0182582666e-07 -1.9276017556e-06 -3.6069982926e-05 3.962916168e-07 -1.9079778462e-06 -8.6521314104e-06 1.1127927189e-07 
-1.9169808066e-06 -8.6482325409e-06 1.1196310585e-07 -1.3506704589e-06 -8.6498899367e-06 1.0893460981e-07 -1.9357878873e-06 -3.4494250239e-05 3.800865865e-07 
-1.9355482816e-06 -3.3708457826e-05 3.7195105263e-07 -1.364053231e-06 -3.3710352017e-05 3.6927599037e-07 -1.926922581e-06 -3.3712328749e-05 3.7187293727e-07 
1.9235122812e-06 -4.0078965683e-06 4.9083174693e-08 1.9339043755e-06 -4.7749796971e-06 5.5511708945e-08 1.9136208401e-06 -4.0045847799e-06 4.1203572798e-08 
1.3651918363e-06 -4.0024221783e-06 4.8032995497e-08 1.9376355335e-06 -5.5477964607e-06 6.2504690235e-08 1.9331130699e-06 -6.3182626835e-06 6.8619586526e-08 
1.3746551071e-06 -5.5447910044e-06 6.3674154682e-08 1.9295014573e-06 -5.5441517636e-06 6.0577109476e-08 1.958536283e-06 -3.3708457821e-05 3.5377297121e-07 
1.9587758806e-06 -3.4494250245e-05 3.619123481e-07 1.3956669342e-06 -3.3710352007e-05 3.5644803278e-07 1.9671619819e-06 -3.3712328742e-05 3.5385108647e-07 
1.9669102964e-06 -3.2926635457e-05 3.4571555366e-07 -1.9159003284e-06 -1.333177807e-05 1.6021287656e-07 -1.3561834027e-06 -1.3329700276e-05 1.5772266579e-07 
-1.9246564944e-06 -1.3327879378e-05 1.6052095571e-07 1.953830205e-06 -2.2720144329e-05 2.3981944519e-07 1.9533974854e-06 -2.193638658e-05 2.316800087e-07 
1.9624559722e-06 -2.2724015685e-05 2.3995512178e-07 1.3923317475e-06 -2.2722008322e-05 2.4252387603e-07 1.9628765577e-06 -2.3507945577e-05 2.4809068647e-07 
1.9481972419e-06 -8.6521266679e-06 9.3692130613e-08 1.9466262147e-06 -7.8744582867e-06 8.5778894609e-08 1.3822802411e-06 -8.6498932717e-06 9.6025777214e-08 
1.9399708333e-06 -8.6482426942e-06 9.3006191099e-08 1.9415868735e-06 -9.4268065342e-06 1.0088721794e-07 1.9554333926e-06 -2.5856845174e-05 2.7237756329e-07 
1.9550524121e-06 -2.5072430076e-05 2.6423817624e-07 1.9640591032e-06 -2.5860716495e-05 2.7249679206e-07 1.3934679069e-06 -2.5858717839e-05 2.7507375029e-07 
1.9644279887e-06 -2.6645282887e-05 2.806323284e-07 1.9546576636e-06 -2.4288171491e-05 2.5609878477e-07 1.3929181506e-06 -2.4290039619e-05 2.587985217e-07 
1.9632833865e-06 -2.4292042425e-05 2.5622623529e-07 1.9591551298e-06 -1.7241620757e-05 1.8300198142e-07 1.9586351437e-06 -1.6459220265e-05 1.7486070224e-07 
1.3896201856e-06 -1.6457189952e-05 1.7741575747e-07 1.949454032e-06 -1.5673151288e-05 1.6655193545e-07 1.9499985662e-06 -1.6455341776e-05 1.7469305797e-07 
1.9561389102e-06 -1.3331778467e-05 1.4236545267e-07 1.9569669459e-06 -1.4113286237e-05 1.5039615437e-07 1.9476444772e-06 -1.3327879275e-05 1.4205693965e-07 
1.3877967506e-06 -1.3329700189e-05 1.4485525947e-07 1.9468100994e-06 -1.2546742481e-05 1.3396759181e-07 1.9543383769e-06 -1.1769829474e-05 1.2636519806e-07 
1.9531411946e-06 -1.0989578045e-05 1.1816635121e-07 1.3864199624e-06 -1.1767737108e-05 1.2866646664e-07 1.9456276892e-06 -1.1765992446e-05 1.2585374332e-07 
1.9561574019e-06 -2.7426124435e-05 2.8865685769e-07 1.9565004315e-06 -2.8210977771e-05 2.967962413e-07 1.3939810117e-06 -2.7428001247e-05 2.9134836675e-07 
1.9647831092e-06 -2.742999536e-05 2.8876786354e-07 1.9520198144e-06 -1.958619788e-05 2.0726056723e-07 1.951535096e-06 -1.8803180814e-05 1.9912044225e-07 
1.9606463201e-06 -1.9590069681e-05 2.0741273834e-07 1.3910490364e-06 -1.9588053442e-05 2.099735361e-07 1.9611184421e-06 -2.0373279519e-05 2.1554867518e-07 
1.9510362097e-06 -1.8020361796e-05 1.9097954801e-07 1.390353028e-06 -1.8022213659e-05 1.9369685434e-07 1.9596646937e-06 -1.8024234452e-05 1.911399841e-07 
1.9529509675e-06 -2.1152806186e-05 2.2354051386e-07 1.3917086764e-06 -2.1154665687e-05 2.262485418e-07 1.9615768959e-06 -2.1156677244e-05 2.2368440144e-07 
1.9568296953e-06 -2.8995966752e-05 3.0493562459e-07 1.3944574665e-06 -2.8997848105e-05 3.0762358725e-07 1.9657725733e-06 -2.978495748e-05 3.1317394201e-07 
1.9654554016e-06 -2.8999838071e-05 3.0503840783e-07 1.9439589284e-06 -7.0976066227e-06 7.7944635592e-08 1.9356802688e-06 -7.0938140444e-06 7.6644110655e-08 
1.3792892071e-06 -7.0951692738e-06 7.9824857563e-08 1.9577415877e-06 -3.1351695793e-05 3.2935429891e-07 1.9580191368e-06 -3.2137175184e-05 3.374936818e-07 
1.3953004256e-06 -3.2139065226e-05 3.4017342048e-07 1.9666448422e-06 -3.2141046504e-05 3.3758001868e-07 1.9575665285e-06 -1.4895083282e-05 1.5856806531e-07 
1.3888104163e-06 -1.4893012325e-05 1.6112648477e-07 1.948907443e-06 -1.4891194631e-05 1.5839478808e-07 1.9574502735e-06 -3.0566331177e-05 3.2121491567e-07 
1.3948972709e-06 -3.0568216677e-05 3.2389820137e-07 1.9660759794e-06 -3.0570202101e-05 3.2130947602e-07 1.9520270184e-06 -1.0209845717e-05 1.0984937593e-07 
1.9430183098e-06 -1.0205917466e-05 1.0934100396e-07 1.3846858441e-06 -1.0207634146e-05 1.1228213167e-07 -1.9360137257e-06 -3.528013657e-05 3.8822212369e-07 
-1.36438308e-06 -3.5282035305e-05 3.8555060445e-07 -1.9273880166e-06 -3.5284007896e-05 3.88152231e-07 1.9590017075e-06 -3.5280136568e-05 3.700517265e-07 
1.967627411e-06 -3.5284007888e-05 3.7012161813e-07 1.3959967931e-06 -3.5282035299e-05 3.7272324907e-07 1.9678411564e-06 -3.6069982899e-05 3.7825715321e-07 
1.9606946389e-06 -3.6848823134e-05 3.8629038999e-07 1.9680411374e-06 -3.6856041381e-05 3.8639268625e-07 1.3975694176e-06 -3.6850725972e-05 3.8895726589e-07 
4.2621331398e-09 -4.628907002e-09 -4.4330847958e-10 4.4439530034e-09 -4.8511123324e-09 -2.2432732415e-10 -1.9287256318e-06 -4.1532908765e-05 4.5284465929e-07 
-1.0529755666e-06 -4.2080636761e-05 4.5446359021e-07 -1.93310197e-06 -4.1965162201e-05 4.5735576723e-07 -1.3360825795e-06 -3.9906053492e-05 4.3327844665e-07 
-1.9284665211e-06 -3.9960066789e-05 4.3656535637e-07 -1.9080237249e-06 -3.9904141657e-05 4.3593702524e-07 4.1976298549e-09 -1.5282187403e-10 -5.7234427693e-11 
-4.7378144116e-07 -4.937239312e-05 5.2720473632e-07 1.3381268326e-08 -4.8614688947e-05 5.1710545922e-07 4.9781182793e-07 -4.9384932949e-05 5.2282374294e-07 
-1.6907241061e-06 -4.7079984417e-05 5.0913647232e-07 -1.0980921317e-06 -4.6384408373e-05 4.9919541003e-07 7.1257132085e-07 -4.8625244011e-05 5.1396854413e-07 
1.197011717e-06 -4.9395489866e-05 5.196868483e-07 -1.1090297215e-09 -3.8051497005e-09 3.4716089504e-10 -1.7213968413e-06 -4.7093921006e-05 5.0943378464e-07 
-1.1492496429e-06 -4.7882525655e-05 5.1492946071e-07 -1.1504110173e-09 -8.8115149236e-09 9.7755024636e-10 1.1003168854e-09 2.214758713e-09 2.941869598e-12 
1.2458473683e-09 1.7784860079e-09 9.4450584619e-12 9.8188011555e-07 -5.2406095636e-05 5.518270676e-07 6.8608950065e-07 -4.5575342635e-05 4.8254226759e-07 
2.0947176291e-06 -5.2879167145e-05 5.5155425734e-07 -1.5896986222e-06 -2.5503270511e-06 2.7565303916e-08 -1.0920751854e-06 -3.2378413585e-06 4.9842726612e-08 
1.0411625004e-07 -9.5083915118e-08 6.6008705611e-09 2.3436223017e-08 -2.6462208061e-08 -1.7811147596e-10 4.1292838102e-09 -1.5778581699e-09 -1.0332491618e-10 
-5.1932881294e-09 -8.9926146509e-09 -4.2006671069e-09 -1.2755411883e-08 -1.7725159851e-08 1.0363296456e-09 -4.2261048215e-08 -4.6625957773e-08 2.8598555676e-08 
-1.3216398889e-07 -1.3208949354e-07 4.1065969503e-08 -4.89939433e-08 -4.9311128505e-08 -2.0720209905e-08 1.76068471e-06 -4.7090259105e-05 4.9322001156e-07 
1.1971655444e-06 -4.7878857573e-05 5.0399797518e-07 5.0517647563e-07 -4.7860492919e-05 5.0702074603e-07 1.7620231328e-06 -5.0191929747e-05 5.2530264413e-07 
1.1146285894e-09 2.221832547e-09 2.8872349893e-11 -6.8007860847e-07 -4.8626202258e-05 5.2044386669e-07 -4.5969461923e-07 -4.7864168304e-05 5.1153827126e-07 
-1.3534882063e-08 -4.7095850721e-05 5.0151932402e-07 4.5932072428e-07 -4.6377097348e-05 4.9188885562e-07 -4.3783348863e-07 -4.63770926e-05 4.9605425276e-07 
-9.1070886393e-07 -4.7095850526e-05 5.0568468952e-07 -1.1962010837e-06 -5.3805693823e-05 5.7641569518e-07 -1.2048267836e-06 -5.38018227e-05 5.7641612928e-07 
-1.1633534642e-06 -4.9390749293e-05 5.305958259e-07 1.753397595e-06 -5.0188058591e-05 5.2530164054e-07 1.1810488349e-06 -5.1024838175e-05 5.3661483234e-07 
6.8506533714e-07 -5.170937406e-05 5.4599810282e-07 3.1149626297e-08 -3.8327040583e-08 1.6172814912e-09 1.4393241587e-08 -4.5590443732e-05 4.8581714857e-07 
-1.7355562714e-06 -5.0175505728e-05 5.4137139298e-07 1.9455526188e-07 -1.4898528987e-07 6.9008573158e-08 -8.7538244454e-07 -2.5498386771e-06 4.033651299e-08 
-1.5426106486e-06 -1.9056989379e-06 6.366754253e-08 7.743496162e-09 -1.3262520725e-08 8.4633557819e-10 -1.1313268049e-06 -5.0843141071e-05 5.4547037334e-07 
-9.6095357655e-07 -5.0130101325e-05 5.3730396149e-07 9.8225181882e-07 -5.0155180951e-05 5.2854208412e-07 4.1502327128e-09 -1.6195971098e-09 -1.1612228032e-10 
4.1310521768e-09 -1.6689457338e-09 -1.1368534174e-10 4.2825190621e-09 -9.2844346366e-10 -6.7252285857e-11 4.2951010199e-09 -6.2178063329e-10 -4.9605901789e-11 
-3.2458287747e-10 -2.5707440846e-10 3.0647143073e-12 -3.5636095287e-10 -4.1283812277e-10 6.2727675508e-13 -6.458452277e-07 -4.5597756191e-05 4.8895825976e-07 
5.0079307895e-09 -6.529317394e-09 -4.6044257378e-10 4.644049307e-09 -5.3783942655e-09 -7.3091566157e-10 5.0456834488e-09 -7.3121092388e-09 -5.8369288284e-10 
-9.6722301785e-10 -2.4165123706e-09 1.8828217839e-11 5.4620049801e-09 -8.9473215858e-09 -8.2185116667e-10 -2.1488474572e-06 -5.3801822273e-05 5.8079827991e-07 
-2.1402217653e-06 -5.3805693395e-05 5.8079831355e-07 7.0762089175e-10 5.7426455755e-09 5.873539748e-11 1.2729302824e-09 5.1725855568e-09 5.0103726586e-11 
-1.285548663e-06 -5.3525105133e-05 5.7392854522e-07 5.6174396327e-09 -4.9324879636e-08 3.1810343305e-09 1.6363908772e-07 -1.489675573e-07 3.9775335241e-09 
1.0564930282e-07 -1.5657657071e-07 3.0898903374e-12 1.9650612091e-06 -4.5111453429e-05 4.718049478e-07 1.0515224337e-06 -4.2103369344e-05 4.4492582495e-07 
8.0571094175e-07 -4.1316877929e-05 4.3792980848e-07 8.6845886849e-10 9.2164934001e-10 2.7410027383e-12 1.8688780046e-09 1.6206742054e-09 1.8013884098e-11 
8.8012697235e-10 9.285867057e-10 7.4002877848e-12 1.88655149e-09 1.6309628231e-09 -2.2122895727e-12 1.7225585969e-06 -3.7642162393e-05 3.9566558163e-07 
1.1520386401e-06 -3.7636853674e-05 3.982361282e-07 3.3352364495e-09 1.5027577129e-09 -1.5609059479e-12 3.196480592e-09 1.956236826e-09 5.9989292442e-12 
3.3559485542e-09 1.5119734811e-09 1.2042060359e-12 -1.8973088052e-06 -5.089241668e-05 5.4953473138e-07 -1.9059343204e-06 -5.0888545496e-05 5.4953735749e-07 
-1.6734703826e-06 -1.56769891e-05 1.8355332694e-07 -1.1132325896e-06 -1.5674960034e-05 1.8098716063e-07 -1.6775949666e-06 -1.0985571292e-05 1.3493300833e-07 
-1.1102055801e-06 -1.0987356836e-05 1.3213992817e-07 -1.6587466571e-06 -6.3214744534e-06 8.5176445939e-08 -1.1034653111e-06 -6.3191673493e-06 8.320309245e-08 
-3.4276012815e-08 -4.5552322305e-08 5.6702766489e-10 -1.690605939e-06 -3.6066093624e-05 3.9521199824e-07 -1.1189192777e-06 -3.606800008e-05 3.9254696303e-07 
1.1300401375e-06 -4.7718562681e-06 5.652932843e-08 1.6835151444e-06 -4.7706849029e-06 5.3262433918e-08 -1.1186631801e-06 -3.4496132616e-05 3.7627204645e-07 
-1.6815960857e-06 -3.4498100924e-05 3.788759992e-07 1.7111856671e-06 -1.2550502287e-05 1.353752278e-07 1.1431189205e-06 -1.2548447258e-05 1.3790437948e-07 
1.7185815715e-06 -2.5076267133e-05 2.6549499088e-07 1.1481075964e-06 -2.5074276995e-05 2.6807738898e-07 1.7127804511e-06 -3.2922741619e-05 3.4677976091e-07 
1.1499906589e-06 -3.2924640797e-05 3.4945197689e-07 1.1454722346e-06 -1.7239565324e-05 1.8669971724e-07 1.7059998532e-06 -1.7237701484e-05 1.8398984793e-07 
1.1460589604e-06 -1.880500459e-05 2.0297690564e-07 1.7155091036e-06 -1.8807009644e-05 2.0040834316e-07 1.148951207e-06 -2.8212836506e-05 3.0062722756e-07 
1.7198469838e-06 -2.8214819366e-05 2.9803764642e-07 1.717135426e-06 -2.1940219154e-05 2.3295224638e-07 1.1471434667e-06 -2.1938221705e-05 2.3552749411e-07 
1.7117861952e-06 -2.9781059104e-05 3.1422274192e-07 1.1493278189e-06 -2.9782951004e-05 3.169021447e-07 1.7106111653e-06 -2.6641379967e-05 2.8166572019e-07 
1.1485444663e-06 -2.6643264591e-05 2.8435230962e-07 1.6949268186e-06 -7.8703138494e-06 8.5961505747e-08 1.1379558889e-06 -7.8719552529e-06 8.9042223588e-08 
1.7092553502e-06 -2.3504038098e-05 2.4910867376e-07 1.1476405984e-06 -2.3505915455e-05 2.5180245882e-07 1.1440900521e-06 -1.4111174872e-05 1.5412190103e-07 
1.7040230358e-06 -1.4109357963e-05 1.5137656277e-07 1.7077186041e-06 -2.0369367276e-05 2.1655130032e-07 1.1466162244e-06 -2.0371237499e-05 2.192524069e-07 
1.7067154974e-06 -9.4304572716e-06 1.0296607317e-07 1.1401178274e-06 -9.4282756437e-06 1.052421421e-07 1.149674302e-06 -3.1353566346e-05 3.331770615e-07 
1.7209316253e-06 -3.1355541929e-05 3.3058029476e-07 -1.6868933285e-06 -2.8214820186e-05 3.1379566286e-07 -1.1246231132e-06 -2.8212837054e-05 3.1120628176e-07 
-1.6879826195e-06 -3.1355542621e-05 3.4635271256e-07 -1.1253508568e-06 -3.1353566808e-05 3.4375611512e-07 -1.6920013484e-06 -2.0369368403e-05 2.3253331964e-07 
-1.1222731165e-06 -2.0371238253e-05 2.2983192804e-07 -1.6935446804e-06 -2.3504039106e-05 2.6507558059e-07 -1.123304078e-06 -2.3505916129e-05 2.6238154816e-07 
-1.1237740786e-06 -2.5074277626e-05 2.7865645237e-07 -1.6856224923e-06 -2.507626808e-05 2.8123861987e-07 -1.1228037496e-06 -2.1938222421e-05 2.4610667774e-07 
-1.6841701487e-06 -2.1940220229e-05 2.486816665e-07 -1.1217122682e-06 -1.8805005367e-05 2.1355758862e-07 -1.6825368485e-06 -1.8807010826e-05 2.1612587786e-07 
-1.6960863733e-06 -2.978105986e-05 3.3016078636e-07 -1.1250021465e-06 -2.9782951509e-05 3.2748119837e-07 -1.6949063069e-06 -2.6641380849e-05 2.97618171e-07 
-1.1242137574e-06 -2.664326518e-05 2.949313658e-07 9.5131983724e-07 -4.7092179958e-05 4.9700171989e-07 -1.6781983051e-06 -1.2550504918e-05 1.5096210644e-07 
-1.1187548642e-06 -1.2548449076e-05 1.4843331669e-07 -1.6902752023e-06 -1.7237702615e-05 1.999951781e-07 -1.1211217742e-06 -1.7239566094e-05 1.9728493653e-07 
-1.1055278946e-06 -4.7718101518e-06 6.7044362017e-08 -1.6676382944e-06 -4.7705773983e-06 7.0239808502e-08 -1.6882911467e-06 -1.4109360062e-05 1.6750983896e-07 
-1.1197317093e-06 -1.4111176473e-05 1.6476393516e-07 -1.6737146507e-06 -9.430466721e-06 1.1829626134e-07 -1.1157360939e-06 -9.4282794271e-06 1.1601496861e-07 
-1.6791582314e-06 -7.8702985317e-06 1.0277915905e-07 -1.113563788e-06 -7.8719503731e-06 9.9681964397e-08 -1.69708489e-06 -3.2922742248e-05 3.6270340347e-07 
-1.1256692417e-06 -3.2924641215e-05 3.6003103079e-07 -1.1264424914e-06 -3.7640201778e-05 4.0885578009e-07 -1.6896165457e-06 -3.7642162956e-05 4.1146683289e-07 
1.7062354165e-06 -6.3214593545e-06 7.0946460607e-08 1.142287199e-06 -6.3192087126e-06 7.289656303e-08 1.7291297687e-06 -3.4498101489e-05 3.6308917644e-07 
1.1575710111e-06 -3.4496132995e-05 3.6569299162e-07 1.7209694326e-06 -1.5676990719e-05 1.6781398125e-07 1.1521054503e-06 -1.567496114e-05 1.7037972874e-07 
1.7078271233e-06 -1.0985576876e-05 1.1879432817e-07 1.1490597099e-06 -1.0987360873e-05 1.2158648524e-07 1.7208898575e-06 -3.6066094112e-05 3.7930274858e-07 
1.1578287584e-06 -3.6068000398e-05 3.8196790556e-07 1.6631872862e-06 -3.2451571446e-06 4.5891919906e-08 1.1162873739e-06 -3.2381227566e-06 4.1594621904e-08 
-8.9588278801e-10 -9.833566184e-10 -1.8121177068e-11 -8.1909430859e-10 -8.6727832652e-10 7.9443630915e-12 -6.6799212509e-10 -7.9624514371e-10 -1.8613827676e-11 
-8.2754367253e-10 -1.0300624066e-09 1.1250196741e-11 -9.0576832573e-10 -9.8476461905e-10 3.8370736537e-11 -6.7761451819e-10 -7.9668103166e-10 3.2766660691e-11 
-9.9600355535e-10 -2.4184286724e-09 1.0692049145e-10 1.6194784307e-06 -4.4577997361e-05 4.6789096439e-07 8.1315864727e-07 -4.4184673601e-05 4.6756588403e-07 
1.0516926124e-06 -4.4971291788e-05 4.7459610244e-07 -1.1089703588e-06 -4.3395605356e-05 4.6832762309e-07 -4.5480319269e-07 -4.3532564957e-05 4.6670721221e-07 
-7.0055572122e-07 -4.274600841e-05 4.5971094091e-07 -1.3546917854e-06 -4.2609059984e-05 4.6133148704e-07 2.785968157e-08 -3.598435576e-07 2.517348451e-09 
3.2632404194e-07 -6.785681392e-07 2.3622447699e-09 3.6295506033e-07 -3.9156323089e-07 -1.8302086063e-09 3.7670364812e-09 -4.4187253572e-10 -5.0286906786e-11 
3.8878386594e-09 -2.9413301066e-09 -1.5839410946e-10 3.9301173671e-09 -2.6547877337e-09 -1.6347236821e-10 4.0357130487e-09 -2.8744255488e-09 -2.6850572866e-10 
3.9818741888e-09 -2.6315415453e-09 -2.0072857881e-10 1.0859952381e-08 -1.0876221079e-08 -7.1876235874e-09 -1.825241734e-07 -6.3682820436e-07 -4.2491830272e-10 
7.2011375849e-10 1.6741579845e-09 3.9014525397e-11 -1.6344856386e-06 -3.2449089525e-06 4.6415208069e-08 -1.9334402548e-06 -4.5111433311e-05 4.8990560548e-07 
-8.0198734793e-10 -7.676013784e-10 -2.0570245673e-11 -6.8514274308e-08 -1.5372057262e-07 3.8556604394e-09 -1.0570746498e-07 -1.014727652e-07 -4.6411114563e-09 
-2.2308243036e-07 -1.7730885517e-07 -7.817370697e-08 -9.9317347492e-09 -4.2746004362e-05 4.5650406081e-07 -2.5805171055e-07 -3.446189319e-07 9.7921353686e-09 
-8.1012614282e-10 -7.6897333391e-10 3.295799663e-11 7.0951784646e-07 -7.5262031794e-07 2.2263051794e-09 5.7166197963e-07 -1.2103208877e-06 1.5345018461e-09 
3.8177551032e-08 -1.2240070028e-06 1.6247528161e-08 -1.6516676986e-06 -1.7560124557e-06 -1.3032799333e-08 1.0795765728e-06 -1.8394915288e-06 2.4814620939e-08 
1.5400163317e-06 -1.9183932776e-06 -1.3904017406e-08 1.760011988e-06 -3.9194041731e-05 4.1150716843e-07 1.1967400209e-06 -3.9195954741e-05 4.1416567703e-07 
-4.881887482e-07 -4.4884602968e-05 4.8084891339e-07 -1.1788960312e-06 -4.4884608727e-05 4.8405598956e-07 4.4223962539e-07 -4.3532567625e-05 4.6254182334e-07 
-8.3916878154e-08 -4.4184664228e-05 4.7173107464e-07 4.0677689462e-09 -1.396691714e-09 -8.6362054441e-11 -1.1485308556e-06 -3.9192757014e-05 4.2502607362e-07 
-1.7204277877e-06 -3.9190843756e-05 4.276843846e-07 1.0969798195e-06 -1.2972144187e-06 -5.0012901945e-09 -1.8078299391e-07 -1.670912289e-07 -1.2257760294e-09 
4.5917208497e-07 -4.0699736669e-05 4.3315335303e-07 1.4389375988e-08 -4.1486183042e-05 4.4335663024e-07 -4.3769193238e-07 -4.069973691e-05 4.3731872108e-07 
-9.5783188519e-11 5.1736264323e-09 5.6455584145e-11 1.2282421698e-10 6.071960495e-09 6.5239271204e-11 -1.0154518287e-06 -1.7219309619e-06 2.947979317e-08 
-6.4842946743e-10 -2.8158056909e-09 2.7930075319e-10 -5.0586011638e-10 -2.8823251536e-09 -3.4586314077e-11 -3.6237944663e-07 -4.208062677e-05 4.5125648962e-07 
2.0904076465e-06 -5.3663917918e-05 5.5969298149e-07 2.0990333849e-06 -5.366778907e-05 5.5969045648e-07 4.1337538406e-09 -2.0127180148e-09 -1.5315858856e-10 
-1.5855466032e-08 -2.3642438964e-08 3.4418981101e-09 9.5110672918e-07 -3.998228932e-05 4.2344428213e-07 -3.2166618785e-10 -2.5986703866e-10 -4.3076220372e-13 
4.0448814703e-09 -2.5204744635e-09 -1.4889191904e-10 3.7828890473e-09 -2.4162337881e-09 -1.306295611e-10 1.5806855557e-08 -3.056816116e-05 3.3031217577e-07 
-4.3556427113e-07 -2.9782918062e-05 3.2427428458e-07 -8.8707843846e-07 -3.0568184956e-05 3.3451142623e-07 -4.3570224169e-07 -3.1353536149e-05 3.4054920101e-07 
1.5806855407e-08 -2.8997787761e-05 3.1403726696e-07 -8.8679049918e-07 -2.8997813626e-05 3.1823626936e-07 -4.3541430269e-07 -2.821280082e-05 3.0799936787e-07 
1.5806855531e-08 -2.4289964792e-05 2.6521250791e-07 -4.3489241215e-07 -2.3505871533e-05 2.5917462254e-07 -8.8578271087e-07 -2.4289996865e-05 2.6941176559e-07 
-4.3507837323e-07 -2.5074235818e-05 2.7544953541e-07 1.5806855819e-08 -2.2721928668e-05 2.4893759781e-07 -4.3469445271e-07 -2.193817504e-05 2.428997207e-07 
-8.8539879115e-07 -2.2721962811e-05 2.531366268e-07 1.5806855416e-08 -2.7427936075e-05 2.9776234224e-07 -4.3525233671e-07 -2.664322616e-05 2.9172445127e-07 
-8.8647856474e-07 -2.742796401e-05 3.0196159309e-07 1.580685545e-08 -2.585864784e-05 2.8148743303e-07 -8.8614263536e-07 -2.5858677844e-05 2.856864373e-07 
1.5806856526e-08 -2.1154581211e-05 2.3266267029e-07 -4.3448450185e-07 -2.0371188087e-05 2.2662485988e-07 -8.8499087613e-07 -2.1154617419e-05 2.3686201739e-07 
1.5806855229e-08 -1.9587964208e-05 2.1638775418e-07 -8.845590151e-07 -1.9588002444e-05 2.2058708777e-07 -4.3426263126e-07 -1.880495253e-05 2.1035012735e-07 
-4.3306903233e-07 -1.2548344321e-05 1.4524058025e-07 1.5806673182e-08 -1.3329533912e-05 1.512887525e-07 -4.3346534504e-07 -1.4111088038e-05 1.6153545472e-07 
-8.8239202956e-07 -1.3329607336e-05 1.5550027403e-07 -4.340286443e-07 -1.7239509727e-05 1.9407607048e-07 1.5806840939e-08 -1.8022119371e-05 2.0011280735e-07 
-8.8410339608e-07 -1.8022159853e-05 2.0431325413e-07 1.5805065361e-08 -8.6494781399e-06 1.0247388135e-07 -4.318663033e-07 -9.4280894207e-06 1.1273767254e-07 
-8.7875448451e-07 -8.649654808e-06 1.0671104676e-07 -4.3097354552e-07 -7.8716811394e-06 9.6452078932e-08 -4.358282159e-07 -3.2924613347e-05 3.5682411692e-07 
1.5806855022e-08 -3.2139014535e-05 3.465871015e-07 -8.8734238211e-07 -3.2139036262e-05 3.5078610259e-07 9.1941199199e-07 -3.5282011853e-05 3.7493791952e-07 
4.675558978e-07 -3.4496107908e-05 3.6889990552e-07 1.5806852241e-08 -3.5281994265e-05 3.7913691898e-07 4.6765787774e-07 -3.6067978103e-05 3.8517482203e-07 
1.5806523178e-08 -1.1767518172e-05 1.3501527673e-07 -8.7424316551e-07 -1.176760785e-05 1.3913782957e-07 -4.2530987986e-07 -1.0987199245e-05 1.2893626395e-07 
-4.2651550238e-07 -1.5674888067e-05 1.7777218586e-07 1.580677856e-08 -1.6457082872e-05 1.8383785081e-07 -8.7636060584e-07 -1.6457129442e-05 1.8800893473e-07 
9.0585637198e-07 -1.1767608561e-05 1.3089325852e-07 4.6416200761e-07 -1.098720075e-05 1.2478884463e-07 4.5743445802e-07 -1.2548343741e-05 1.410969044e-07 
4.6538812564e-07 -1.5674888517e-05 1.7359454865e-07 4.5837912925e-07 -1.7239509434e-05 1.8990852996e-07 9.0797422838e-07 -1.6457129524e-05 1.7966683831e-07 
4.6127710855e-07 -6.3186503156e-06 7.5965880739e-08 1.5778373496e-08 -5.5436901932e-06 6.9883310642e-08 4.5172162464e-07 -4.7707207759e-06 5.9686454761e-08 
8.979668286e-07 -5.5442798058e-06 6.5833039138e-08 -4.2248811739e-07 -6.3186305988e-06 8.0096901713e-08 -8.6632049874e-07 -5.544250968e-06 7.3974798458e-08 
-4.273375781e-07 -4.7707622473e-06 6.3787802183e-08 1.5806742853e-08 -1.4892863266e-05 1.6756300334e-07 -8.75818408e-07 -1.48929285e-05 1.7174502671e-07 
1.5800936137e-08 -7.0946001263e-06 8.6195883664e-08 4.5536687492e-07 -7.8716829521e-06 9.2257565923e-08 9.0113186698e-07 -7.0948894825e-06 8.204189324e-08 
-8.6952507948e-07 -7.094872755e-06 9.0363285575e-08 4.5782461585e-07 -1.4111087416e-05 1.5735015227e-07 9.0743183769e-07 -1.4892928371e-05 1.6338097276e-07 
9.0468909778e-07 -1.0207448243e-05 1.1455030269e-07 1.5805928119e-08 -1.0207322347e-05 1.1874391438e-07 4.5624889098e-07 -9.428088083e-06 1.0851573964e-07 
1.5806853023e-08 -3.371030615e-05 3.6286201122e-07 -8.8028914441e-07 -3.3710325496e-05 3.6702735961e-07 -4.2864815827e-07 -3.4496107763e-05 3.7306513185e-07 
-8.7307685671e-07 -1.0207447935e-05 1.2293908557e-07 9.1190284902e-07 -3.3710325488e-05 3.5869666317e-07 4.6014972804e-07 -3.2924613177e-05 3.5265889057e-07 
4.5989004559e-07 -2.9782917864e-05 3.201090582e-07 4.6002578931e-07 -3.1353535968e-05 3.3638397467e-07 9.0411390397e-07 -3.0568184194e-05 3.2618073012e-07 
4.5882771257e-07 -2.037118779e-05 2.2245946857e-07 4.590342726e-07 -2.1938174758e-05 2.3873444884e-07 9.0206004914e-07 -2.1154616259e-05 2.2853113215e-07 
9.0246137655e-07 -2.2721961716e-05 2.4480636544e-07 4.5922903489e-07 -2.3505871268e-05 2.5500938359e-07 9.0319321018e-07 -2.5858676882e-05 2.7735622411e-07 
4.5941199314e-07 -2.507423557e-05 2.7128430562e-07 4.595831477e-07 -2.6643225928e-05 2.87559224e-07 9.0352371556e-07 -2.7427963115e-05 2.9363089601e-07 
4.5974249849e-07 -2.8212800605e-05 3.0383414131e-07 4.586094173e-07 -1.8804952226e-05 2.0618435021e-07 9.0163516053e-07 -1.9588001227e-05 2.1225622888e-07 
9.0283909722e-07 -2.4289995838e-05 2.6108105522e-07 9.0383061343e-07 -2.8997812798e-05 3.0990605985e-07 8.9950186076e-07 -1.3329604933e-05 1.4714539035e-07 
8.9591944108e-07 -8.6496514511e-06 9.8311179362e-08 9.0118688736e-07 -1.8022158602e-05 1.9598021407e-07 9.0437358764e-07 -3.2139035566e-05 3.4245589322e-07 
-4.2874849268e-07 -3.6067977975e-05 3.8934004643e-07 -8.7320842694e-07 -3.5282011294e-05 3.8326812932e-07 -9.1019565218e-07 -3.9979091753e-05 4.3205626257e-07 
1.5806843576e-08 -3.685403714e-05 3.9541183789e-07 -8.8069377465e-07 -3.6854052433e-05 3.9957718904e-07 -4.3613418391e-07 -3.7640182204e-05 4.0564885077e-07 
4.6045070479e-07 -3.7640182042e-05 4.0148364595e-07 9.1230747532e-07 -3.6854052397e-05 3.9124649729e-07 1.4971683661e-06 -1.4000691301e-06 -7.6987233575e-08 
1.32437948e-06 -1.1440579924e-06 -3.7148275851e-09 -2.5741068467e-10 -4.6763512553e-10 2.3590058278e-11 -2.5209737604e-10 -4.6859382286e-10 -2.1879798584e-11 
3.6092467024e-07 -4.2103358721e-05 4.4813309332e-07 4.1097168787e-09 -1.6386390391e-09 -1.0146754989e-10 8.8435922685e-07 -4.0008739013e-06 4.9705136836e-08 
4.8281724801e-07 -1.7990564493e-06 2.7388382199e-08 -5.4446547224e-07 -1.1421332937e-06 2.0425145205e-08 -1.031335438e-06 -1.1961529077e-06 2.4571496462e-08 
-5.6808589867e-07 -6.9582555795e-07 8.8821052154e-09 -1.7269304975e-06 -5.0179376919e-05 5.4136774121e-07 4.4527402852e-07 -3.2662774222e-06 4.3218968637e-08 
1.458843319e-08 -4.0302645107e-06 5.3843308511e-08 3.6098361009e-07 -4.4971280903e-05 4.7780286923e-07 -9.3305762523e-07 -4.4097996339e-05 4.7477722593e-07 
1.7264889894e-06 -4.4324829843e-05 4.6477505387e-07 1.73073006e-06 -4.3540172543e-05 4.5664833911e-07 4.2477887183e-09 -2.0721670269e-10 -2.9072196619e-11 
-1.033446457e-10 2.8914436522e-12 -1.2883113724e-11 5.0631314701e-07 -3.9195937262e-05 4.1737261536e-07 1.4390068907e-08 -3.9913337836e-05 4.2708160105e-07 
-3.6137008991e-10 -4.419197367e-10 -1.0425880596e-11 -4.5810462543e-07 -3.9192739691e-05 4.2181911582e-07 1.5806779941e-08 -3.8426393083e-05 4.1168674877e-07 
9.5095770308e-07 -3.8409667076e-05 4.071696049e-07 -4.2313602011e-07 -3.2663644729e-06 4.8036437977e-08 -8.6704596583e-07 -4.0009916841e-06 5.7584271088e-08 
4.125645679e-09 -1.2195299623e-09 -8.9254132674e-11 4.0152891523e-09 -4.2028701197e-09 -7.5299868916e-10 -9.1004788522e-07 -3.8406469779e-05 4.157811203e-07 
1.1427764017e-06 -4.3538220569e-05 4.5934743001e-07 6.9056799138e-07 -4.2751650553e-05 4.5330947797e-07 1.9446914274e-06 -4.3143024228e-05 4.5152126169e-07 
8.9866569314e-07 -2.5511502075e-06 3.4150047151e-08 4.673290334e-08 -2.4866443231e-06 3.6366179786e-08 -1.7466795652e-06 -4.4491312219e-05 4.8262372456e-07 
-1.6831876899e-06 -4.3540160245e-05 4.7247750355e-07 -1.7509233504e-06 -4.3702781842e-05 4.7449796643e-07 -3.9161681769e-07 -1.7948708157e-06 3.007829199e-08 
-4.2803560968e-09 -6.3779142735e-09 3.5567188772e-09 -9.6891214504e-10 -6.2842297691e-09 -1.5347364934e-09 -8.3233109281e-09 -1.1239370628e-08 5.6079841788e-09 
-1.1299650397e-10 -3.7978816801e-09 2.5040979567e-10 -8.8278391868e-07 -6.7839354103e-07 -1.2986125217e-07 -4.8952932849e-07 -4.4642726462e-07 7.9232860134e-09 
-4.6815580449e-07 -3.6196779602e-07 1.1071137017e-07 -9.1047052357e-07 -6.9642394592e-07 1.4030071572e-07 -9.0223569967e-07 -8.2070324212e-07 1.773664296e-08 
3.1842617229e-09 -4.2713103135e-09 -4.1089465715e-10 1.3812001377e-06 -4.27516657e-05 4.5010264078e-07 -8.1317828107e-10 -2.12628515e-09 -3.4868526926e-11 
7.1235371905e-10 1.6713020225e-09 -1.9274693952e-11 7.5064199695e-07 -5.9417979473e-07 1.2617452632e-07 3.6246437867e-07 -2.9501473008e-07 1.0796740653e-07 
4.7003422581e-07 -3.6519707092e-07 -1.032611533e-07 9.0891624446e-07 -6.9845257879e-07 -1.3200478592e-07 -6.1516852613e-11 1.9932840494e-12 -7.1280479274e-12 
-9.6937802776e-11 8.6935435468e-13 9.6181208482e-13 -3.9351616498e-07 -3.2512288494e-07 -1.0780982033e-07 4.0908174218e-09 -2.6753921509e-09 -2.3846191299e-10 
3.9682216605e-09 -2.7313326321e-09 -1.5118732748e-10 -8.7251895287e-10 -2.1269838698e-09 1.3951718978e-10 -3.660394003e-10 -4.4152354872e-10 1.3302654898e-11 
4.2672262783e-09 -6.6546091449e-09 1.5145500175e-09 -1.9288914302e-06 -4.2753612844e-05 4.6547773979e-07 -1.9268020277e-06 -4.3000410204e-05 4.6805128741e-07 
4.1603086684e-09 -1.8195679768e-09 -1.3582183114e-10 3.1756208907e-07 -2.6787034714e-07 -8.6461279063e-08 3.0409082791e-09 2.2067001666e-09 2.9032118245e-12 
3.0605425432e-09 2.2154784685e-09 1.6468263495e-11 6.9967728322e-09 -6.5264527599e-09 -3.787851196e-09 -2.9789063717e-07 -2.4862056977e-07 8.4710103348e-08 
1.9691329994e-06 -4.2753619149e-05 4.4740769894e-07 -1.3275116094e-06 -1.1368889329e-06 2.3059599318e-08 -1.3557760244e-06 -1.0855656569e-06 2.2445197767e-08 
-3.0034307579e-10 5.9121638423e-09 6.6119720227e-11 5.3874078276e-11 6.3054032527e-09 6.8434488997e-11 -6.1807505908e-11 2.5606896321e-12 9.2238296712e-12 
-3.8171008989e-10 6.6662326886e-09 7.4681121832e-11 -6.2179999247e-11 2.242546087e-12 -7.0881873519e-12 -6.2579085342e-11 2.9148645726e-12 9.3489202335e-12 
-1.5123472006e-06 -1.4007508264e-06 1.0502791788e-07 -3.8417731945e-11 1.6035097733e-12 6.0576617013e-13 -6.1357493132e-10 6.8547539598e-09 7.7700477304e-11 
-5.4454543917e-10 6.6213172426e-09 7.4613815862e-11 3.8145999644e-09 -1.0970630088e-09 -8.1548458694e-11 
Critical%20Strain%20Ratio 1 3803 double
0 0 0 0 0 0 0 0 0 
0 0 0 0 0 0.085097103465 0 0 0 
0 0.084932286039 0 0.44519832764 0.46850214645 0 0 0 1.2174256985 
0 0 0 0 0 1.2514664893 0 0 0 
0 0 0 0 0 0 0 0 0 
0 0 0 0 0 0 0 0 0 
0 0 0 0 0 0 0 0 0 
0 0 0 0 0 0 0 0 0 
0 0 0 0 0 0 0 0 0 
0 0 0 0 0 0 0 0 0 
0 0 0 0 0 0 0 0 0 
0 0 0 0 0 0 0 0 0 
0 0 0 0 0 0 0 0 0 
0 0 0 0 0 0 0 0 0 
0 0 0 0 0 -0.0049680203208 0 0 0 
0 0 0.065032230283 0 0 0 0 0 0 
0 0 0 0 0 0 0 0 0 
0 0 0 0 0 0 0 0 0 
0 0 0 0 0 0 0 0 0 
0 0 0 0 0 0 0 0 0 
0 -0.0049569392428 0 0 0 0 0 0.064887177089 0.02937450578 
0.069413764893 0.069287070858 0 0 0 0 0 0 0 
0 0.47172803654 0.44374391256 0.46544987834 0.19186685018 0.0073368489019 -5.8817639041e-05 0 0.34406931625 
0.09687237049 0.00061594631259 0 0 0.15497043188 0.012962589683 -0.00026310404964 0 0.35428141286 
0.072035894815 0.0027552613781 0 0 0 0 0 0 0 
0 0 0 0 0 0 0 0 0 
0 0 0 0 0 0 0 0 0 
0 0 0 0 0 0 0 0 0 
0 0 0.0037949958084 0.52256924734 0 0 0.26555172009 0.85720736899 0.93240416486 
0.38814464531 0.17411407992 0.093207568074 0.072654949685 0.046744144921 0.031598490568 0.012726635658 0.0047434985283 -0.00050090960637 
0 0 0 0 0 0 0 0 0 
0 0 0 0 0 0 0 0 1.0069950399 
0.69597699276 0.27568241238 0.12574534502 0.08456504842 0.059967818514 0.038998834866 0.028584526525 0.0061229349781 0.0031973535553 
0 0 0 0 0 0 0 0 0 
0 0 0 0 0 0 0 0 0 
0 0 0 0 0 0 0 0 0 
0 0 0 0 0 0 0 0 0 
0 0 0 0 0 0 0 0 0 
0 0 0 0 0 0 0.35224780444 0.13813318873 0.062077963234 
0.032883852087 0.026365643296 0.016803161635 0.011595917693 0.0045424292804 0.0017410234184 -0.0001822958884 0 0 
0 0 0 0 0 0 0 0 0 
0 0 0 0 0 0 0.43872399775 0.21940970953 0.097232981383 
0.046295788521 0.030196778028 0.021941484765 0.014079862149 0.010368674232 0.0022982432895 0.0011506724105 0 0 
0 0 0 0 0 0 0 0 0 
0 0 0 0 0 0 0 0 0 
0 0.34309042078 0.14557496051 0.05527066915 0.036414167393 0.024261041561 0.018950583898 0.010034372184 0.005094531001 
0.0016722514457 0 0 0 0 0 0 0 0 
0 0 0 0 0 0 0 0 0 
0 0.42861253093 0.23851992427 0.095139820658 0.045647705976 0.030014837034 0.021605673896 0.015775756856 0.0073095518508 
0.005582853372 0 0 0 0 0 0 0 0 
0 0 0 0 0 0 0 0 0 
0 0 0 0.019003990483 0.45531143154 0 0 0.22957694869 0.92219892915 
0.87582175865 0.43958446248 0.14668547642 0.10108625919 0.067482530438 0.052004425946 0.028078202386 0.014157937111 0.0045780770886 
0 0 0 0 0 0 0 0 0 
0 0 0 0 0 0 0 0 0 
0.93049651499 0.66797229983 0.27720080012 0.12796341358 0.082316023998 0.06016057415 0.043291008151 0.020465376631 0.015317873344 
0 0 0 0 0 0 0 0 0 
0 0 0 0 0 0 0 0 0 
0 0 0 0 0 0 0 0 0 
0 0 0 0 0 0 0 0 0 
0 0 0 0 0 0 0 0 0 
0 0 0 0 0 0 0 1.4247150188 1.3944612594 
1.3321497546 0 0 0 0 0 0 0 0 
0 0 0 0 0 0 0 0 0 
0 0 0 0 0 0 0 0 0 
0 0 0 0 0 0 0 0 0 
0 0 0 0 0 0 0 0 0 
0 0 0 0 0 0 0 0 0 
0 0 0 0 0 0 0 0 0 
0 0 0 0 0 0 0 0 0 
0 0 0 0 0 0 0 0 0 
0 0 0 0 0 0 0 0 0 
0 0 0 0 0 0 0 0 0 
0 0 0 0 0 0 0 0 0 
0 0 0 0 0 0 0 0 0 
0 0 0 0 -0.01672725899 0 0 0 0 
0 0 0 0 0 0 0 0 0 
0 0 0 0 0 0 0 0 0 
0 0 0 0 0 0 0 0 0 
0 0 0 0 0 0 0 0 0 
0 0 0 0 0 0 0 0.061739592476 -0.012420050802 
0 0 0 0 0 0 0 0 0 
0 0 0 0 0 0 0 0 0 
0 0 0 0 0 0 0 0 0 
0 0 0 0 0 0 0 0 0 
0 0 0 0 0 0 0 0 0 
0 0 0 0 0 0 0 0 0 
0 0 0 0 0 0 0 0 0 
0 0 0 0 0 0 0 0 0 
0 0 0 0 0 0 0 0 0 
0 0 0 0 0 0 0 0 0 
0 0 0 0 0 0 0 0 0 
0 0 0 0 0 0 0 0 0 
0 0 0 0 0 0 0 0 0 
0 0 0 0 0 0 0 0 0 
0 0 0 0 0 0 0 0 0 
0 0 0 0 0 0 0 0 0 
0 0 0 0 0 0 0 0 0 
0 -0.016705031412 0 0 0 0 0 0 0 
0 0 0 0 0 0 0 0 0 
0 0 0 0 0 0 0 0 0 
0 0 0 0 0 0 0 0 0 
0 0 0 0 0 0 0 0 0 
0 0 -0.012392348107 0.061611687676 0 0 0 0 0 
0 0 0 0 0 0 0 0 0 
0 0 0 0 0 0 0 0 0 
0 0 0 0 0 0 0 0 0 
0 0 0 0 0 0 0 0 0 
0 0 0 0 0 0 0 0 0 
0 0 0 0 0 0 0 0 0 
0 0 0 0 0 0 0 0 0 
0 0 0 0 0 0 0 0 0 
0 0 0 0 0 0 0 0 0 
0 0 0 0 0 0 0 0 0 
0 0 0 0 0 0 0 0 0 
0 0 0 0 0 0 0 0 0 
0 0 0 0 0 0 0 0 0 
0 0 0 0 0 0 -0.014562685189 0 0 
0 0 0 0 0 0 0 0 -0.0082800338679 
0.10471801677 0.046811038652 0.10456215871 -0.0082615654046 0 0 0 0 0 
0 0 0 0 0 0 0 0 0 
0 0 0 0 0 0 0 0 0 
0 0 0 0 0 0 0 0.27552733847 0.04842097441 
-0.0010838746112 0 0 0 0 0 0.39755790782 0.37208896049 0.21433438143 
0.39168255725 0.23343387254 0.12658739413 0.029245424303 0.15216818342 0.00044747957798 -7.8423518721e-05 0.01243501205 0 
0 0 0 0.029625212414 0.10540023404 -0.00035080539952 0.0028360412692 0 0 
0 0 0 0 0 0 0 0 0 
0 0 0 0 0 0 0 0 0 
0 0 0 0 0 0 0 0 0 
0 0 0 0 0 0 0 0 0 
0 0 0 0 0 0 0 0 0 
0 0 0 0 0 0 0 0 0 
0 0 0 0 0 0 0 0 0 
0 0 0 0 0 0 0 0 0 
0 0 0 0 0 0 0 0 0 
0 0 0 0 0 0 0 0 0 
0 0 0 0 0 0 0 0 0 
0 0 0 0 0 0 0 0 0 
0 0 0 0 0 0 0 0 0 
0 0 0 0 0 0 0 0 0 
0 0 0 0 0 0 0 0 0 
0 0 0 -0.029823551711 0 0 0 -0.070423970807 0 
0 0 0 0 0 0 0 0 0 
0 0 0 0.046640994079 -0.020987220569 0 0 -0.0038857582146 -0.00028214078577 
-0.0035984669856 0 0 0 0 0 0 0 -0.014169918769 
0 0 -0.0089565883577 -0.0014317256948 0 0 0 0 0 
0 0 -0.00010643481185 0 0 -0.0099138958419 0 0 0 
0 0.6009892283 -0.042541659014 0 0 0.29101927997 0.11167161123 0 0 
0.0012526265496 0 0.25642052335 -0.012933161552 -0.0056500562567 0 0 0 0 
0 0 0 0 0 -0.00016370448117 -0.00078470553339 -0.0004526528769 0 
0 0 0.11704830369 -0.0046819157786 -0.0020572692891 0 0 0 0 
0 0 0 0 0 0 -2.1388232378e-05 -0.0025032952701 -0.063274686721 
-0.024082396587 0 0.31968306164 0 0 0 0 0 0 
0 0 -0.005365312056 0.17386799268 0.27582435261 0.39519180067 0.34306314723 0.2210576562 0 
0.75421119352 0.40206239795 0.74714484079 0.83125533569 0.55927903445 0 0 0 0 
0 0 0 0 0 0 0 0 0 
0 0 0 -0.0027345428948 0.073343120922 0.026746794439 -0.00011763527808 0.00030797315629 0.0001730798187 
0 0 0 0 0 0 0 0 0 
-0.02301577043 0 0 -0.022259309736 0.1781652979 0.20373346043 0.15375695714 0.32452144988 0.63714034669 
0.42973882246 0.084141805753 0.16236860349 0.095821017191 0.046988120672 0.083357027242 0.00090103979256 0.017899948775 0.024708940683 
-0.0057009030955 0.012547904055 0.022343326453 -0.010107485702 0.0046829982513 0.010888169264 -0.0045267145016 0.0012647565761 0.006577109041 
-0.0031389934755 -0.00038045400113 0.0013258655969 0 -0.00066865578289 0.0015789841963 0 0 0 
0 0 0 0 0 0 0 0 0 
0 0 0 0 0 0 0 0 0 
0 0 0 0 0 0 0 0 0 
0 0 0 0 0 0 0 0 0 
0 0 0 0 0 0 0 0 0 
0 0 0 0 0 0 0 0 0 
0 0 0 0 0 0 0 0 0 
0 0 0 0 0 0 0 0 0 
0 0 0 0 0 0 0 0 0 
0 0 0 0 0 0 0 0 0 
0.21867016183 0.13024613837 0.23924371356 0.063223728741 0.027813690903 0.038793248339 0.029551909899 0.016160072362 -0.0032049814232 
0.0087078047049 0.0063792104217 -0.0020285754471 0.0081921404266 0.0045016613511 -0.0036673694208 0.0039737880055 0.0017712105838 -0.0016823439897 
0.0024541444764 0.00041472167584 -0.001192453251 0.00047611282745 -0.00012525227158 0 0.00056883556075 -0.0002432109591 0 
0 0 0 0 0 0 0 0 0 
0 0 0 0 0 0 0 0 0 
0 0 0 0 0 0 0 0 0 
0 0 0 0 0 0 0 0 0 
0 0 0 0 0 0 0 0 0 
0 0 0 0 0 0 0 -0.012877443935 0.030191021925 
0 -0.037300261489 0.131687601 0.097914761947 -0.028431041552 0.032671689202 0 0 0 
0 0 0 0 0 0 0 0 0 
0 0 0 0 0 0 0 0 0 
0 0 0 -0.028980066179 0.22463689215 0.18534909326 0.042726243337 0.10577367286 -0.015633517784 
0 -0.0099492781828 0.040881308234 0 0 0 0 0 0 
0 0 0 0 0 0 0 0 0 
0 0 0 0 0 0 0 0 0 
0 0 0 0 0 0 0 0 0 
0 0 0 0 0 0 0 0 0 
0 0 0 0 0 0 0 0 0 
0 0 0 0 0 0 0 0 0 
0 0 0 0 0 0 0 0 0 
0 0 0 0 0 0 0 0 0 
0 0 0 0 0 0 0 0 0 
0 -0.021410011946 0.25300358695 0.11446116377 0.20215114386 0.029349319808 0.042957387571 0.085518789814 0.19889861959 
0.020893288543 0.0061962775664 0.0022409485991 0.00028254011608 0 0 0 0 0 
0 0 0 0 0 0 0 0 0 
0 0 0 0.013109909687 0.42530876794 0.43357244645 0 0 0.34691874007 
0 0.16908659789 0.28071023569 0.2701504189 0.07181886815 0.10961673156 0.1304886258 0.036830641057 0.053201266293 
0.061154972325 0.028079768682 0.031955851584 0.035614577535 0.01972881124 0.023996859075 0.025751667858 0.012107098329 0.015530947868 
0.018433422574 0.0083130183862 0.011340918451 0.011664510465 0.0015749772179 0.0029906408202 0.0057626968786 1.553736447e-05 0.0019453312738 
0.001635875066 0 0 0 0 0 0 0 0 
0 0 0 0 0 0 0 0 0 
0 0 0 0 0 0 0 0 0 
0 0 0 0 0 0 0 0 0 
0 0 0 0 0 0 0 0 0 
0 0 0 0 0 0 0 0 0.16952360605 
0.11853013776 0.073348227072 0.049873687556 0.039487116113 0.032710256627 0.026879930648 0.023164388702 0.020023029609 0.017487210441 
0.013762189489 0.0083722745548 0.0051107139501 0.0060857009977 0.0038979864314 0.00072965263906 0 0 0 
0 0 0 0 0 0 0 0 0 
0 0 0 0 0 0 0 0 0 
0 0 0 0 0 0 0 0 0 
0 0 0 0 -0.049104157047 0 -0.0034903966672 0 0 
0 0 0 0 0 0 0 0 0 
0 0 0 -0.061797725982 0 -0.0053886407253 0 0 -0.0068756670745 
0 0 0 0 0 0 0 -0.012598827065 -0.00052311929909 
0 0 0 -0.0044411849071 0 0 0 0 0 
-0.0014540184938 -0.0025105700488 0 0 0 0 0 -0.01680115487 0.092683032855 
0.025326199267 0 0.35627444125 0 0.081452697423 0 0 0 0 
0 0 -0.01033945449 -0.010423771267 -0.0022978515771 0 0 0 0 
0 0 0 0 0.016558685873 -0.0036533420128 0.036618752915 -0.0037870146118 -0.00083334146566 
0 0 0 0 0 0 0 0 0 
0 0 0 0 0 0 -0.00019713434582 0.071335236308 0.59045470943 
0.2151883885 0.29809156458 -0.0021679304505 -0.015469962717 0 0 0 0 0 
0.27396767196 0.11867938705 0.26721842141 0.3513925281 0.095110005627 0.27517009491 0.18211755151 0 0 
0 0 0 0 -0.0044766312045 0 0 0 0 
0 0 0.41110896872 0.88416500624 0.84354089142 0.75280244313 0.48556820319 0.80202643585 0.36179188105 
0 0 0 0 0 0 0 0 0 
0.056319133185 0.004612917814 0.023665451168 0.0023224698797 -0.00052620809928 0.0021327217596 -0.00024059763794 0 0 
0 0 0 0 0 0 -0.014285400667 0 0 
-0.0068623786939 0.094488145538 0.17676608784 0.12306673467 0.037316446033 0.080129455247 0.022363473564 0.012091998599 0.020408524112 
0.0040401238951 0.0092951295883 0.015286428028 -0.0038980767234 0.0036538460095 0.0056967079852 -0.0025717512332 0.001475162991 0.0043819973269 
-0.0024888093861 0.00011543860302 0.0020945365089 -0.00053079979305 0.00015299253529 0.00095019540906 -0.00014950951884 0 0 
0 0 0 0 0 0 0 0 0 
0 0 0 0 0 0 0 0 0 
0 0 0 0 0 0 0 0 0 
0 0 0 0 0 0 0 0 0 
0 0 0 0 0 0 0 0 0 
0 0 0 0 0 0 0 0 0 
0 0.14884982784 0.087439102698 0.15496394062 0.4873498993 0.2861720694 0.30754825083 0.2260107159 0.091838890249 
0.091074905021 0.055871878114 0.033261075682 0.010574114269 0.042137030961 0.025714375424 -0.010822161294 0.015935756248 0.010121004028 
-0.0070481346555 0.011831831304 0.0042343125708 -0.0067707464911 0.0057405166303 0.00031183963824 -0.0014366529119 0.0026577556046 0.00041438471211 
-0.00041511160594 0 0 0 0 0 0 0 0 
0 0 0 0 0 0 0 0 0 
0 0 0 0 0 0 0 0 0 
0 0 0 0 0 0 0 0 0 
0 0 0 0 0 0 0 0 0 
0 0 0 0 0 0 0 0 0 
0 0 0 0 0 0 0 0 0 
0 0 0 0 0 0 0 0 0 
0 0 0 0 0 0 0 0 0 
0 0 0 0 0 0 0 0 0 
0 0 0 0 0 0 0 0 0 
0 0 -0.003979089122 0.015659830942 -0.016130491913 0.078614180265 0.0075561098405 0.089688357414 0.077813520005 
0 0 0 0 0 0 0 0 -0.00040831308464 
0 -0.00089985236561 0.0072730731281 0.0034759949902 0.0058572659453 0.0046318959226 0.014386643322 0 0 
0 0 0 0 0 0 0 0 0 
0 0 0 0 0 0 0 0 0 
0 0 0 0 0 0 0 0 0 
0 0 0 0 0 0 0 0 0 
0 0 0 0 0 0 0 0 0 
0 0 0 0 0 0 0 0 0 
0 0 0 0 0 0 0 0 0 
0 0 0 0 0 0 0 0 0 
0 0 0 0 0 0 0 0 0 
0 0 0 0 0 0 0 0 0 
0 0 0 0 0 0 -0.00039020411317 0.017632099299 0.24168673076 
0.087237008606 0.017595399823 0.086609824974 0 0 0 0 0 0 
0.82576837654 0.15076395289 -0.0038393902764 0 0 0 0 0 0 
0.71641734911 1.1324768765 1.2458266994 1.1618117076 0.68885896773 0 -0.0027865072263 0 0.32707857043 
0.075586664431 0.041693813292 0.46351259052 -0.00079848860808 0 0.08810676983 0.28747176562 0 0.23084487965 
0.080216691018 0.59492086071 0.11661696108 0.057090578548 0.035884329127 0.017224903161 0.00076403715559 0 0 
0 0 0 0 0 0 0 0 0 
0 0 0 0 0 0.006139815395 1.1134653818 0 1.0991010713 
0 0.78550302228 0.49784875668 0.93219733597 0.74971458791 0.30057462166 0.19759619302 0.41453642974 0.1409906515 
0.10303015707 0.16587433975 0.088604222752 0.077267762969 0.097805168519 0.065776365422 0.054870938501 0.070405624624 0.042846222498 
0.033119993899 0.050783660079 0.031307684149 0.023206056231 0.032280971603 0.0082832622674 0.0042684477063 0.015951768108 0.005353067344 
2.7233497598e-05 0.004506304363 0 0 0 0 0 0 0 
0 0 0 0 0 0 0 0 0 
0 0 0 0 0 0 0 0 0 
0 0 0 0 0 0 0 0 0 
0 0 0 0 0 0 0 0 0 
0 0 0 0 0 0 0 0 0 
0 0.51728086193 0.18273220956 0.33647179142 0.10914102071 0.13472994225 0.074105800622 0.08966824906 0.055032754898 
0.063809687041 0.038422348547 0.048174913578 0.014340195456 0.023351447864 0.010675795339 0.016767629845 0 0.0020022320778 
0 0 0 0 0 0 0 0 0 
0 0 0 0 0 0 0 0 0 
0 0 0 0 0 0 0 0 0 
0 0 0 0 0 0 0 0 0 
0 0 0 0 0 0 0 0 0 
0 0 0 0 0 0 0 0 0 
0 0 0 0 0 0 0 0 0 
0 0 0 0 0 0 0 0 0 
0 0 0 0 0 0 0 0 0 
0 0 0 0 0 0 0 0 0 
0 0 0 0 0 0 0 0 0 
0 0 0 0 0 0 0 0 0 
0 0 0 0 0 0 0 0 0 
0 0 0 0 0 0 0 0 0 
0 0 0 0 -0.00047322630715 0 0 0 0 
0 0 0 0 0 0 0 0 0 
0 0 0 0 0 0 0 0 0 
0 0 0 0 0 0 0 0 0 
0 0 0 0 0 0 0 0 0 
0 0 0 0 0 0 0 0 0 
0 0 0 0 -0.025211205664 -0.0020843385063 -0.004164391503 -0.025265614962 0 
-0.0020800529967 0 0 0 0 0 0 0 0 
0 0 0 0 0 0 0 0 0 
0 0 0 0 0 0 0 0 0 
0 0 0 0 0 0 0 0 0 
0 0 0 0 0 0 0 0 0 
0 0 0 0 0 0 0 0 0 
0 0 0 0.01734794883 0 0.009085432081 0 0 0.0173364622 
0 0 0 0 0 0 0 0 0 
0 0 0 0 0 0 0 0 0 
0 0 0 0 0 0 0 0 0 
0 0 0 0 0 0 0 0 0 
0 0 0 0 0 0 0 0 0 
0 0 0 0 0 0 0 0 0 
0 0 0 0 0 0 0 0 0 
0 0 0 0 0 0 0 0 0 
0 0 0 0 0 0 0 0 0 
0 0 0 0 0 0 0 0 0 
0 0 0 0 0 0 0 0 0 
0 0 0 0 0 0 0 0 0 
0 0 0 0 0 0 0 0 0 
0 0 0 0 0 0 0 0 0 
0 0 0 0 0 0 0 0 0 
0 0 0 0 0 0 0 0 0 
0 0 0 0 0 0 0 0 0 
0 0 0 0 0 0 0 0 0 
0 0 0 0 0 0 0 0 0 
0 0 0 0 0 0 0 0 0 
0 0 0 0 0 0 0 0 0 
0 0 -3.9211759361e-05 -0.00029570151873 0 0 0 0 0 
0 0 0 0 0 0 0 0 0 
0 0 0 0 0 0 0 0 0 
0 0 0 0 0 0 0 0 0 
0 0 0 0 0 0 0 0 0 
0 0 0 0 0 0 0 0 0 
0 0 0 0 0 0 0 0 0 
0 0 0 0 0 0 0 0 0 
0 0 0 0 0 0 0 0 0 
0 0 0 0 0 0 0 0 0 
0 0 0 0 0 0 0 0 0.027155198436 
0.26716056607 0.60039060505 0.099341155384 0.23507429787 0 0 0 0 0 
0 0 0 0 0 0 0 0 0 
0 0.052618192337 0.097142892998 0.077829368222 0 -0.0015491158597 0 -0.0021821645439 0 
0 0 0 0 0 0 0 0 0.24983536139 
0.42845041091 0.13209211202 0.28297793081 0.1244494241 0 0 0 0 0 
0 0 0 0 0 0 0 0 0 
0 0 -0.031510014948 -0.0031105948165 0 0 0 0 0 
0 0 0 0 0 0 0 0 0 
0 0 0 0 0 0 0 0 0 
0 0 0 0 0 0 0 0 0 
0 0.020711008718 0.039135131386 0.030745849652 0.0076874323962 0 0 0 0 
0 0.00012557055405 0.0010986623388 0.00029653986821 0.0011439397081 -0.00035083372457 0 0 0 
0 0 0 0 0.015515515914 0.011793581339 0.018193957594 -0.0016362080796 0.0066385301904 
0.010199627863 0.0083305287341 -0.0035327550073 0.0033195616392 0.0031169726256 -0.0012081701321 0.00099804375363 0 -3.8773050307e-05 
0 0 0 0 0 0 0 0 0 
0 0 0 0 0 0.0038991378919 0.0062383066006 -0.002661337932 0 
0 0 0 0.101592136 0.056486379824 0.084678293544 0.023565984833 0.043111713839 0.031946823729 
-0.0041805695736 0.049321129416 0 0 0 0 0 0.00020304038731 0 
-5.8557129787e-05 0 0 0 0 0 0.010533680538 0.018010619548 -0.0072274264907 
0.016868599894 0.0084601396675 0 0 0 0 0 0 0 
0 0 0 0 0 0 0.0005714871899 -0.00011723015062 -0.00016564558851 
0 0.00078634717795 0.00032934062267 0.0030487331369 -0.00094592858594 0.0031720368905 0 0 0 
0 0 0 0 0 0 0 0 0 
0 0 0 0 0 0 0 0.027743885376 0.022423622876 
-0.0098198154362 0 0 0 0 0 0 0 0 
0 0 0.0088841898214 0.0027598078413 -0.0032505650662 0 0 0 0 
0 0 0 0 0 0 0 0 0 
0 0 0 0 0 0 0 0 0 
0 0 0 0 -0.0024967522997 0 0 -0.0052082182262 0 
0 0 0 0 0.083152562976 0.0046111028871 0.28548031463 0.067411886146 0 
0.018710619652 0.018675563543 0.065334436303 0.16760950094 0.1100294694 0 0 0 0 
0 0 0 0 0 0 0 0 0 
0 0 0 0 0.09285882601 0 0 0.48635590642 0.0060769171192 
0.11704084499 -0.019406520155 0 0 0 0 0 0 0 
0 0 0 -0.0084542278029 -0.0066569872904 0 0 -0.018825875333 0 
0 0 0 0 -0.043653074655 0.37442228512 0.11689075492 0 0 
0 0 0 0 0 0 0 0 0 
0 0 0 0 0 0.00063017392577 0 0.0091383031096 -0.0016610881234 
0.033249560975 0 0 -0.0047230097162 0.041105811326 0 0 0.00014495314733 0 
0 0 0 0 0 0 0 0 0 
0 0 0 0 0 0 0 0.016336734473 -0.0024634548539 
0 0 0 0 0 0 0.0083327350974 -0.0010200364798 0 
0 0 0 0 0 0 0 0 0 
0 0 0 0 0 0 0 0 0 
0 0 5.6996771582e-05 0 0 0 -0.0018525817488 0.015480034463 0 
0 0.0031290158224 -0.00039384336643 0.0060735113772 -0.00092535967983 0 0 0 0 
0.024834010739 -0.0044880600198 0 0 0 0 0.0017563676551 0 0 
0 0.10092099129 0.0078789026867 0 0 0 0 0 0 
0 0 0 0 0 0 0 0 -0.068347818091 
0.24741249572 0.52952128014 0 0 0 0 0 0.054367817313 -0.014410447052 
0 0.040420629348 0 0 0.002321968366 0.094883817311 0.21720617546 0 0.090289808963 
0 0.62420528871 0.17751383539 -0.064928824566 0.15835447886 0.15913899547 0.35668642032 0 0 
0 0 0 0 0 0 0 0.42564167953 0.099525673396 
0 0 0 0 0 0.074041964333 0 0 0 
0 0 0 0.020626147007 0 0 0 0 0 
0 0 0 0 0 0 0 0 0 
0 0 0 0 0 0 0 0 0 
0 0 0 0 0 0 0 0 0 
0 0 0 0 0 0 0 0 0 
0 0 0 0 0 0 0 0 0 
0 0 0 0 0 0 0 0 0 
0 0 0 0 0 0 0 0 0 
0 0 0 0 0 0 0 0 0 
0 0 0 0 0 0 0 0 0 
0 0 0 0 0 0 0 0 0 
0 0 0 0 0 0 0 0 0 
0 0 0 0 0 0 0 0 0.5745158247 
0.79649564677 0 0 0 0 -0.0029750021493 -0.0018610048505 0.04981511182 0.16428201946 
0.13812516771 0 -0.0051430624147 0 0 0 0 0 0 
0 0 0 0 0 0 0 -0.0018377309197 -0.0011277457898 
0 -0.0080612405831 0 0 0 0 0.023900381287 -0.0017145730795 0 
0 0 0.0020483729577 0.011737522263 0.013416848301 0.015271324302 -0.0027973616561 0.3955023848 0.20201771385 
0.27082667983 0.34694505735 0.26278416481 -0.0090135676164 0 0 0 0.98381393609 0.87772123733 
0.94949014166 1.0367039624 0 0 0.28575763549 0 0 0 0 
0.037904524699 0 0 0 0.85095392115 0 0 0.039540617608 0.28882478492 
0 0.27686216982 0.33094203952 0 0 0 0 0 0 
0.21787328998 0 0 0 0 
Displacement%20Magnitude 1 3803 double
0 0 5.4996507676e-10 5.5306641174e-10 0 0 2.1659142561e-09 2.1638218639e-09 2.1800133896e-09 
2.1905243288e-09 3.8898912399e-09 5.038495528e-09 4.5524772931e-09 8.0109208573e-09 0 3.4195403818e-09 5.1227279538e-09 4.6011164698e-09 
8.0206761552e-09 0 3.5613076908e-09 1.044811336e-06 1.0752944512e-06 3.1946122858e-09 5.0472262248e-09 5.1046158809e-09 1.0701050375e-06 
4.3225953859e-05 5.4224654314e-05 5.4222605738e-05 4.3223343259e-05 4.3216612857e-05 1.0817829234e-06 4.3217212814e-05 5.4216114972e-05 5.4215668134e-05 
0 0 0 5.5160315625e-10 5.4959193311e-10 5.5182825243e-10 1.2689686614e-10 3.0421858672e-10 5.7419600527e-11 
2.081091873e-10 4.1735568862e-10 1.2657153151e-10 3.047102027e-10 5.7495138134e-11 2.0809161125e-10 4.1887290896e-10 0 0 
0 0 0 0 0 0 0 0 0 
0 0 0 0 0 0 2.1628436003e-09 2.1835033523e-09 2.1729406299e-09 
2.1811717938e-09 2.1826351659e-09 9.0567161998e-10 1.3225572816e-09 1.7502428514e-09 7.1609994095e-10 1.1086320813e-09 1.540741768e-09 1.9562935758e-09 
9.135751175e-10 1.3373799139e-09 1.7697650989e-09 7.2094330988e-10 1.1200933423e-09 1.5581809743e-09 1.9778545602e-09 2.597700393e-09 3.1053498706e-09 
3.5596491432e-09 2.3701879632e-09 2.8387850621e-09 3.3551443857e-09 3.6971220271e-09 5.1779484051e-09 5.3943718032e-09 5.1587517209e-09 4.4057520375e-09 
5.4496050622e-09 5.2352103908e-09 5.1100828116e-09 4.8860837731e-09 4.7568372586e-09 4.6519207504e-09 4.5758703767e-09 4.9590788468e-09 4.818748936e-09 
4.701021179e-09 4.6083836383e-09 4.5568370129e-09 4.6555519733e-09 5.0898102397e-09 5.84452534e-09 6.8522100429e-09 4.5722387691e-09 4.8276055899e-09 
5.4278560915e-09 6.3239039749e-09 7.4177538432e-09 6.0586425667e-09 4.115673116e-09 2.243043923e-09 7.0342357125e-09 5.0843548203e-09 3.1635082907e-09 
1.3416884873e-09 7.8184381097e-10 9.0445466147e-10 1.3224002884e-09 1.8914582376e-09 1.8294791485e-09 5.6162408946e-10 8.6886568469e-10 1.0331497105e-09 
1.6454264319e-09 1.9527929687e-09 1.4462039466e-09 2.6326439006e-09 3.1405224176e-09 3.4318822204e-09 2.3974072596e-09 2.8818088284e-09 3.3387374063e-09 
3.3936624533e-09 4.8769621805e-09 5.5656772162e-09 5.2834936982e-09 3.942370889e-09 5.4185865799e-09 5.384010356e-09 5.208103543e-09 4.9562898324e-09 
4.8181481066e-09 4.7091346637e-09 4.6283638053e-09 5.0346438628e-09 4.8835643867e-09 4.7606225705e-09 4.6620844952e-09 4.6065791462e-09 4.697246076e-09 
5.122749665e-09 5.8687234425e-09 6.8686119364e-09 4.6177469875e-09 4.8650098381e-09 5.4563313028e-09 6.3440356317e-09 7.4306961762e-09 6.0691664506e-09 
4.1278504332e-09 2.2625149587e-09 7.0443126186e-09 5.0955681248e-09 3.1780208289e-09 1.3533051987e-09 7.7509255818e-10 8.6558541074e-10 1.2848837801e-09 
1.905589353e-09 1.864641208e-09 5.580340489e-10 8.5128171326e-10 9.8015127101e-10 1.6343333065e-09 1.9806742043e-09 1.4806892968e-09 0 
0 0 3.7603579381e-09 2.6375120727e-09 3.2137926735e-09 3.7819852257e-09 2.3899201219e-09 2.9041601119e-09 3.5411867499e-09 
3.7245648164e-09 1.0174083263e-06 1.016113197e-06 1.0375301379e-06 2.2910788876e-07 7.1444871639e-09 3.622388494e-09 2.7944600581e-09 5.460950766e-07 
6.7004947326e-08 3.6835565172e-09 3.2378034438e-09 2.4308273824e-09 1.8628577105e-07 1.1478937056e-08 3.8413446742e-09 2.8272911006e-09 5.4809952322e-07 
6.6350169693e-08 4.2927158994e-09 3.326250868e-09 2.4521987464e-09 2.6661305945e-09 3.2308551987e-09 3.6392486481e-09 2.4105192921e-09 2.9360653332e-09 
3.4986758325e-09 3.4717025644e-09 3.3534259861e-09 5.042131025e-09 5.3909020092e-09 5.6796731807e-09 5.1885661842e-09 4.1552262708e-09 5.893240544e-09 
5.308314749e-09 5.13775593e-09 5.0789482268e-09 5.0630858972e-09 5.0927415404e-09 5.1114618003e-09 4.5621704683e-09 4.5552231107e-09 4.5797142249e-09 
8.0156421644e-09 8.0132346083e-09 8.018121688e-09 5.1163554781e-09 5.9273052692e-09 5.3047049713e-09 3.8034327646e-09 5.855504691e-09 5.5063836063e-09 
5.2104964027e-09 5.378723128e-09 5.4356293509e-09 2.0245745214e-07 5.1877805357e-09 5.4949667647e-09 5.7821210837e-08 5.3745298264e-07 2.2853899546e-06 
3.456822953e-06 4.7167035821e-06 6.0877911841e-06 7.5307977803e-06 9.0128688457e-06 1.0518905735e-05 1.2039666282e-05 1.3571462277e-05 1.511062341e-05 
1.6655087023e-05 1.820378433e-05 1.9755874084e-05 2.1310745103e-05 2.2867949063e-05 2.4427136476e-05 2.5988035731e-05 2.7550422478e-05 2.911411585e-05 
3.0678958606e-05 3.2244820376e-05 3.3811582484e-05 3.5379144478e-05 3.6947411077e-05 3.8516300325e-05 4.0085732127e-05 4.1655637317e-05 1.6684640059e-06 
2.87290843e-06 4.0667028896e-06 5.3898996843e-06 6.8029070557e-06 8.2681615424e-06 9.7636019147e-06 1.1277662379e-05 1.2804541841e-05 1.4340369667e-05 
1.5882271651e-05 1.7428965363e-05 1.8979447855e-05 2.053299286e-05 2.2089079218e-05 2.3647313249e-05 2.5207387097e-05 2.676905525e-05 2.8332116166e-05 
2.9896402155e-05 3.1461769806e-05 3.3028095447e-05 3.4595269604e-05 3.6163194998e-05 3.7731782977e-05 3.9300952862e-05 4.0870629913e-05 4.2440745549e-05 
4.4796602456e-05 4.6367513075e-05 4.7938643476e-05 4.9509951674e-05 5.1081406105e-05 5.2652979148e-05 4.4011243777e-05 4.5582027763e-05 4.7153053253e-05 
4.8724277358e-05 5.0295662272e-05 5.1867178858e-05 5.343880438e-05 5.4180290126e-05 5.4165151403e-05 5.4179264937e-05 5.4198822739e-05 5.4169064697e-05 
5.4168552012e-05 5.4197285636e-05 4.4794079379e-05 4.6365081532e-05 4.7936298626e-05 4.9507687934e-05 5.1079218512e-05 5.2650863058e-05 4.4008674452e-05 
4.5579550925e-05 4.7150665751e-05 4.872197373e-05 5.02934373e-05 5.1865027697e-05 5.3436722559e-05 2.2486880698e-06 3.4360219692e-06 4.6909836379e-06 
6.0682103745e-06 7.514923575e-06 8.9996154715e-06 1.0507554488e-05 1.2029768122e-05 1.3562706941e-05 1.5102786538e-05 1.6647994577e-05 1.8197312549e-05 
1.9749926916e-05 2.130524695e-05 2.2862839597e-05 2.4422366616e-05 2.5983565218e-05 2.7546217697e-05 2.9110148644e-05 3.0675204963e-05 3.2241259853e-05 
3.3808197364e-05 3.5375919428e-05 3.6944332693e-05 3.8513357002e-05 4.0082913287e-05 4.1652932439e-05 1.6394715217e-06 2.8288445882e-06 4.0414103477e-06 
5.3676558239e-06 6.7853591958e-06 8.2537085712e-06 9.7513675105e-06 1.1267084736e-05 1.2795245064e-05 1.4332096586e-05 1.5874824517e-05 1.7422196826e-05 
1.8973248958e-05 2.0527278589e-05 2.2083782176e-05 2.3642379116e-05 2.5202771491e-05 2.6764721435e-05 2.8328033414e-05 2.9892544491e-05 3.1458115098e-05 
3.3024624673e-05 3.4591966305e-05 3.6160044846e-05 3.7728773491e-05 3.9298073065e-05 4.0867869437e-05 4.2438092537e-05 4.3219983202e-05 4.322166454e-05 
4.3218299228e-05 2.2665541135e-06 3.4402672249e-06 4.6923386353e-06 6.0694000041e-06 7.5134325698e-06 8.9970426045e-06 1.0503844583e-05 1.2026070512e-05 
1.3558282872e-05 1.5097962117e-05 1.6642911576e-05 1.8192005282e-05 1.9744425218e-05 2.1299580472e-05 2.2857028155e-05 2.4416431219e-05 2.5977518383e-05 
2.7540074606e-05 2.9103917213e-05 3.0668896727e-05 3.2234879803e-05 3.3801754659e-05 3.5369417136e-05 3.6937778342e-05 3.8506752314e-05 4.0076264703e-05 
4.1646241204e-05 1.6633856834e-06 2.8425815756e-06 4.0468693435e-06 5.3693596643e-06 6.785034273e-06 8.2514772588e-06 9.7479805313e-06 1.1263417052e-05 
1.279109793e-05 1.4327334301e-05 1.5869855276e-05 1.741699718e-05 1.8967840916e-05 2.0521691294e-05 2.2078040787e-05 2.363650352e-05 2.5196778751e-05 
2.6758624951e-05 2.8321845028e-05 2.9886273553e-05 3.1451770149e-05 3.3018212467e-05 3.4585493213e-05 3.615351588e-05 3.7722193528e-05 3.9291445873e-05 
4.086119912e-05 4.2431381755e-05 5.5539457298e-09 7.9062384736e-09 1.6931082405e-07 5.2654442205e-09 5.9970964803e-09 5.870296832e-08 5.2733136417e-07 
2.2509584059e-06 3.4432551526e-06 4.7002253723e-06 6.0749403909e-06 7.5179219499e-06 9.0007362082e-06 1.0506968501e-05 1.2028774437e-05 1.3560658034e-05 
1.5100076071e-05 1.6644808632e-05 1.819372084e-05 1.9745987454e-05 2.1301011544e-05 2.2858345754e-05 2.4417649725e-05 2.5978649596e-05 2.754112837e-05 
2.9104901778e-05 3.0669819122e-05 3.2235746015e-05 3.380256987e-05 3.5370185825e-05 3.6938504443e-05 3.8507439088e-05 4.0076915282e-05 4.1646858834e-05 
1.6677282802e-06 2.8336348205e-06 4.0560314772e-06 5.3757622773e-06 6.7900070032e-06 8.2555451505e-06 9.7513656443e-06 1.1266317728e-05 1.2793628984e-05 
1.4329572658e-05 1.5871856008e-05 1.7418799519e-05 1.8969476716e-05 2.0523185487e-05 2.207941314e-05 2.363776995e-05 2.519795227e-05 2.6759716316e-05 
2.8322863245e-05 2.9887226223e-05 3.1452663759e-05 3.3019052578e-05 3.4586284646e-05 3.615426282e-05 3.7722899578e-05 3.9292114174e-05 4.0861832584e-05 
4.2431987413e-05 4.4787897604e-05 4.6358839673e-05 4.7930000305e-05 4.9501336993e-05 5.1072818037e-05 5.2644416192e-05 4.4002520763e-05 4.5573338813e-05 
4.7144395311e-05 4.8715648753e-05 5.0287061155e-05 5.1858603601e-05 5.3430253384e-05 5.4172144599e-05 5.4157404522e-05 5.4171920953e-05 5.4190479663e-05 
5.4161117927e-05 5.4161006115e-05 5.4190144441e-05 4.4787313476e-05 4.6358281683e-05 4.7929467592e-05 4.9500827933e-05 5.107233088e-05 5.2643949787e-05 
4.4001926233e-05 4.5572767902e-05 4.7143850169e-05 4.8715128053e-05 5.0286563188e-05 5.1858127e-05 5.342979694e-05 1.0281174661e-06 1.0382463609e-06 
1.0461329259e-06 4.3221588734e-05 4.322377262e-05 4.3219401997e-05 5.4220383682e-05 5.4222518805e-05 5.4218249128e-05 5.4219135907e-05 5.4220870621e-05 
5.4217401818e-05 3.8306308684e-10 6.7426875013e-11 2.0001792134e-10 2.9285664068e-11 2.954532445e-11 9.2788427395e-11 2.9256852501e-11 9.2730394502e-11 
4.6202654721e-10 4.6324426552e-10 3.3986657592e-10 4.635981473e-10 3.4057093957e-10 1.5910958975e-10 2.4877637275e-10 1.2809908086e-10 2.8527237166e-10 
2.4905133916e-10 1.5902189634e-10 0 0 0 0 0 0 0 
0 0 0 0 0 0 0 0 0 
0 0 0 0 0 0 0 0 0 
1.1069180625e-09 7.6772300488e-10 2.0269907813e-09 1.7167806852e-09 1.9132779885e-09 1.4791269432e-09 2.0611747445e-09 6.5302338064e-10 6.5543463766e-10 
8.3546766251e-10 6.5603189576e-10 8.3834433725e-10 2.094585811e-09 2.0951707869e-09 1.8875435181e-09 2.10188207e-09 2.1239005634e-09 2.1198913921e-09 
2.1195480859e-09 1.9142834625e-09 1.9694626509e-09 2.0460433828e-09 1.9860923167e-09 1.2146921011e-09 1.0056522208e-09 9.3069920007e-10 1.6150743496e-09 
1.4012273651e-09 1.2928543687e-09 1.8301740129e-09 1.8153532766e-09 1.7327581011e-09 1.5986058526e-09 1.2213776139e-09 1.0102787217e-09 1.6237286982e-09 
1.4090564112e-09 1.7420325878e-09 1.8398655177e-09 2.9749998678e-09 3.2646431954e-09 2.0176417378e-09 3.0561780532e-09 1.6890271557e-09 4.0750024168e-09 
1.3803262513e-09 3.075597639e-09 2.7814096418e-09 2.7187465746e-09 6.4311307834e-10 2.0305745843e-09 3.7707329346e-09 4.3661323236e-09 2.325447976e-09 
3.752886765e-10 3.287137101e-09 2.6307400496e-09 4.2065679065e-09 1.5017285565e-09 2.630971746e-09 3.6862901012e-09 1.1867733298e-09 4.2795288804e-09 
1.9442264116e-09 3.9440338787e-09 4.2432707487e-09 5.3520242916e-09 2.063418458e-09 2.6110171591e-10 4.578677332e-09 1.4253164622e-10 1.4817734481e-09 
2.0659257837e-09 3.4220490548e-09 1.1729163654e-09 2.3005322544e-09 2.1009318995e-09 2.2906567019e-09 2.4227025871e-09 8.4982147904e-10 4.6964413628e-09 
7.3091812505e-11 2.8940363817e-10 4.0061134332e-10 4.7390743268e-10 6.3292076216e-10 3.1092277941e-10 3.991828572e-10 2.5850960823e-10 7.7246962341e-10 
5.3243760336e-10 7.2269462422e-10 2.0688774733e-09 2.2743015637e-09 1.574128581e-09 1.7982196724e-09 1.6535813717e-09 3.2256623967e-09 3.8808416707e-09 
3.0559568386e-09 3.1169313938e-09 2.7265509289e-09 4.8164250251e-09 4.7295273398e-09 4.9384655598e-09 4.8736298717e-09 4.6255813673e-09 4.1613172378e-09 
4.0739430425e-09 3.6984897311e-09 3.6332563094e-09 3.2474385408e-09 6.4340448446e-09 2.0410166096e-09 1.3126902081e-09 1.5048202684e-09 1.8814875016e-09 
2.0671618542e-09 2.3439521857e-09 2.4376013675e-09 1.3830213402e-10 2.256237338e-10 6.8244535562e-11 1.9749794883e-10 4.5673488328e-09 4.4790533843e-09 
4.3822246843e-09 4.3065740762e-09 4.217974072e-09 3.975704744e-09 4.322847067e-09 4.2466796984e-09 3.8302400138e-09 3.7980242651e-09 4.709582996e-09 
5.035304277e-09 3.629753873e-09 4.9506653296e-09 4.8351246817e-09 4.3373543192e-09 4.5332161931e-09 7.845660897e-11 1.9295424512e-10 1.5993402717e-10 
1.3050138127e-10 4.7887477147e-10 2.4647126066e-09 2.6866427694e-09 2.1052179815e-09 2.7722833198e-09 2.9149064544e-09 2.3143653102e-09 2.4786952813e-09 
3.9332204082e-09 4.1611399429e-09 2.8971628802e-09 4.630674533e-09 5.0618477296e-09 3.7161891836e-09 5.5695326201e-09 6.1013553037e-09 4.7892462856e-09 
5.6767084813e-09 7.7915030246e-10 9.952350808e-10 1.2459810981e-09 1.4778534714e-09 9.0578358175e-10 1.2734671162e-09 4.7197057493e-09 4.1289600046e-09 
3.2361953921e-09 2.6512261393e-09 2.6942630047e-09 1.0252860621e-09 9.6002680069e-10 1.0219389618e-09 1.2575075616e-09 1.1200221137e-09 1.3755967381e-09 
1.1650429898e-09 1.1909917767e-09 1.4542606679e-09 1.3228735727e-09 1.9491296503e-09 1.7095808651e-09 1.6820346352e-09 1.7332461409e-09 2.0416412216e-09 
2.0493488534e-09 2.0749365488e-09 2.2080372384e-09 2.1206623162e-09 2.3626470255e-09 2.4395444505e-09 3.0272173388e-09 3.5469266572e-09 2.7276688239e-09 
2.6862259327e-09 2.8424702082e-09 2.4707654228e-09 2.3834233908e-09 3.0584583406e-09 3.2199889444e-09 2.4691427667e-09 2.2199600639e-09 3.6837075233e-09 
3.8585644721e-09 3.6650920104e-09 3.753624798e-09 4.1156081297e-09 3.7587600539e-09 3.3306505144e-09 2.9852756515e-09 2.5016760693e-09 2.7590091675e-09 
3.4807099557e-09 2.9408004763e-09 3.2141338884e-09 1.9643259711e-09 1.7422671226e-09 2.167692633e-09 2.1174817832e-09 1.8788743677e-09 1.7506448379e-09 
2.3146074927e-09 2.4384704581e-09 2.8502174931e-09 3.3375342124e-09 2.5873722884e-09 3.4175724149e-09 2.7965849045e-09 3.5199473033e-09 1.5171670825e-09 
1.8217229928e-09 1.4218459876e-09 1.9917778795e-09 1.5792615415e-09 1.98849065e-09 4.1908490057e-09 4.39544634e-09 4.3386783667e-09 1.0224303526e-09 
2.9174752689e-09 3.3031470817e-09 1.9231600711e-09 3.1013673817e-09 1.6957720499e-09 4.1374968421e-09 1.3940575998e-09 2.8304396402e-09 2.8254307863e-09 
2.7307078325e-09 6.5662723479e-10 1.9709180435e-09 3.8238768087e-09 4.4134912725e-09 2.3124697479e-09 3.7892999167e-10 3.3230492761e-09 2.6698665141e-09 
4.2706448054e-09 1.4661448959e-09 2.4716257406e-09 3.735088796e-09 1.2019204149e-09 4.3043335365e-09 1.9678042673e-09 3.9955874488e-09 4.1536552674e-09 
5.369656562e-09 2.0985665725e-09 2.6178985072e-10 4.6611936677e-09 1.4253119275e-10 1.4239691934e-09 2.0563654123e-09 3.4482249635e-09 1.1631832293e-09 
2.3274291382e-09 2.137294291e-09 2.3187986738e-09 2.3057941969e-09 8.5655010393e-10 4.8018746599e-09 7.35087313e-11 4.0237343005e-10 2.8985301202e-10 
6.3802793433e-10 4.7724932092e-10 3.1283496534e-10 2.6085512892e-10 4.0217867747e-10 5.3534960375e-10 7.7100248685e-10 7.326317e-10 1.8205399159e-09 
1.5933913104e-09 2.3039381939e-09 2.0969800704e-09 1.6717031591e-09 2.8493899816e-09 2.9340152887e-09 3.6066322106e-09 2.8432574436e-09 2.4902390889e-09 
4.8073389028e-09 4.9052663431e-09 4.9740117463e-09 5.067609932e-09 4.7179997535e-09 4.1231203888e-09 4.2126569348e-09 3.6766929182e-09 3.7450982072e-09 
3.2939741908e-09 6.4477413518e-09 1.9192065892e-09 1.5282000884e-09 1.3302419112e-09 2.0687224668e-09 2.3831686913e-09 2.1030296352e-09 2.479791667e-09 
2.2570467656e-10 1.3835706918e-10 6.868022198e-11 1.976883188e-10 7.8346981437e-11 1.6065088041e-10 1.945719769e-10 1.3061661565e-10 4.8383600107e-10 
1.0080314885e-09 7.8916347283e-10 1.4961111871e-09 1.2615859924e-09 9.1873219572e-10 1.2882734276e-09 2.7341455411e-09 2.4969071415e-09 2.1307344424e-09 
2.9148804725e-09 2.7812811053e-09 2.3274906142e-09 2.4250400427e-09 4.5439880052e-09 4.6379429544e-09 4.454100701e-09 4.2750888662e-09 4.3669849681e-09 
4.0335139051e-09 4.2998278618e-09 4.377712877e-09 3.8830767104e-09 3.8485469682e-09 4.1950146765e-09 3.9725856706e-09 2.9384097313e-09 5.0862365793e-09 
4.6600405533e-09 3.7460255456e-09 6.1182844963e-09 5.5906907357e-09 4.8100932703e-09 5.6905742812e-09 5.0779942661e-09 4.5085810091e-09 3.4661488606e-09 
4.9765683687e-09 5.0543582513e-09 4.3293721345e-09 4.6222578981e-09 9.5055842386e-10 1.0026941396e-09 1.2613769824e-09 1.0225068322e-09 1.1294512771e-09 
1.1165858829e-09 1.3256916762e-09 1.4033675782e-09 1.1547132192e-09 1.3027560567e-09 1.6879210486e-09 1.9532263565e-09 1.6713028631e-09 1.6397642187e-09 
2.0087164154e-09 2.097256838e-09 2.0801405531e-09 2.2219253901e-09 2.4004741902e-09 2.1563832687e-09 2.479254221e-09 4.7350307934e-09 3.2583628174e-09 
4.147692554e-09 2.6799946289e-09 2.7312919973e-09 3.4671272914e-09 2.891825975e-09 2.5969525785e-09 2.5549727582e-09 2.3908796028e-09 2.4464662392e-09 
2.824964837e-09 3.2098058304e-09 3.0797147609e-09 2.411282608e-09 2.135860462e-09 3.6876900604e-09 3.9030591068e-09 4.1802894357e-09 3.806287952e-09 
3.7109955726e-09 3.3634512349e-09 3.8039786378e-09 3.0128853638e-09 2.7954173079e-09 2.5191423718e-09 3.259463477e-09 2.9770850643e-09 3.528299588e-09 
1.667912073e-09 1.8762103469e-09 2.0522515755e-09 1.6904941395e-09 1.8522704631e-09 2.0615012866e-09 2.1915814091e-09 2.2724452689e-09 3.3850962811e-09 
2.8943437121e-09 2.6280882616e-09 2.8384496498e-09 3.4663010242e-09 3.569334566e-09 1.8386178173e-09 1.5287493513e-09 1.4199641701e-09 1.5681662181e-09 
1.9934962713e-09 2.0052666326e-09 4.2517907334e-09 4.4770623185e-09 4.4146591116e-09 1.0345707315e-09 1.6059441661e-09 6.4477088642e-10 1.9802841957e-09 
1.6497509768e-09 1.0178779511e-09 8.6986905069e-10 3.9072979802e-10 4.0390903413e-10 7.2632246824e-10 4.0254707528e-10 7.244800035e-10 1.8222843386e-09 
1.2845778601e-09 1.1753414811e-09 1.3048250827e-09 1.8432880379e-09 8.9367625506e-10 8.5406399426e-10 7.9325636015e-10 1.1543144782e-09 9.5184629328e-10 
9.0716652411e-10 1.4818086639e-09 1.787831534e-09 1.3032542574e-09 1.9564447041e-09 1.971486415e-09 1.867657584e-09 1.8648349739e-09 8.4827985088e-10 
8.7681561109e-10 9.2451242642e-10 1.1264971501e-09 1.7834520967e-09 1.464861174e-09 1.9884013461e-09 1.9634585659e-09 2.3736400448e-09 2.6109337461e-09 
3.6774742686e-09 3.63320465e-09 3.1415423199e-09 2.8608649092e-09 3.4107074496e-09 3.2804662025e-09 2.5548664576e-09 3.5274562601e-07 3.3030070306e-08 
3.4323158782e-09 2.3522911828e-09 2.3387354056e-09 2.6697957743e-09 2.3482895544e-09 2.6849383864e-09 6.4671969844e-07 6.6620753254e-07 2.7581414982e-07 
6.7445438669e-07 2.5365411667e-07 1.0417418096e-07 1.5231325542e-08 1.5080490738e-07 4.1993404305e-09 3.574194969e-09 9.8003410586e-09 3.4662695461e-09 
3.032631436e-09 3.6022463369e-09 2.8898644456e-09 1.8544227796e-08 9.0882576401e-08 3.6935691048e-09 5.0588968802e-09 3.060465101e-09 3.5566830262e-09 
2.4004132576e-09 2.6418766223e-09 3.4291625909e-09 3.4950697902e-09 2.890817853e-09 3.3723455345e-09 3.1629676523e-09 4.3311005653e-09 5.2493417919e-09 
5.121021622e-09 5.1712405212e-09 5.4950654157e-09 5.5951509644e-09 5.2500175876e-09 4.648037919e-09 4.6056297909e-09 4.5839311076e-09 4.99255786e-09 
4.9476515297e-09 4.7507505063e-09 4.6793300859e-09 4.7200192368e-09 4.8274317564e-09 4.8048284333e-09 4.8861569232e-09 4.5631028977e-09 4.990952384e-09 
4.9958226995e-09 4.915627907e-09 4.5668899733e-09 4.5537806609e-09 4.5598087099e-09 5.0457598546e-09 5.0526119766e-09 4.9719854697e-09 4.6028350347e-09 
4.5866132301e-09 4.5691435032e-09 5.0081608382e-09 5.0329722432e-09 4.8558171176e-09 4.7905629721e-09 4.8852587081e-09 4.6636273331e-09 4.7155124162e-09 
4.75260171e-09 4.7137564629e-09 4.7882402659e-09 4.6257471086e-09 4.5869551862e-09 4.6405573574e-09 4.580658896e-09 4.8492221822e-09 4.9182841929e-09 
4.9371090163e-09 4.7125194674e-09 4.7665744364e-09 4.8101762034e-09 4.7607923255e-09 4.8444524734e-09 4.6745359021e-09 4.6315148653e-09 4.6825650421e-09 
4.6114991682e-09 4.9685726078e-09 4.572414301e-09 4.6251429349e-09 4.5915202694e-09 4.66213369e-09 4.6988004161e-09 4.9154200558e-09 4.8552727279e-09 
4.7344378607e-09 4.7770195368e-09 4.8147190074e-09 7.2328867887e-09 4.613097442e-09 6.2170363167e-09 5.4425025456e-09 4.9049789651e-09 4.5678543495e-09 
4.6309059636e-09 4.5733024636e-09 7.615758906e-09 7.0409157547e-09 7.6186977962e-09 4.5914698569e-09 4.6528300225e-09 7.6216988986e-09 7.0485529901e-09 
4.9918480496e-09 4.7647885718e-09 4.7197805229e-09 5.6343803542e-09 5.257043393e-09 5.1383431172e-09 6.0270390793e-09 6.5254222458e-09 5.8046032485e-09 
6.7066111518e-09 4.7846629173e-09 5.0094806131e-09 5.2726120109e-09 5.647633302e-09 6.5347688717e-09 6.0384164735e-09 3.2426759339e-09 5.0227542206e-09 
1.753627253e-09 6.5506776471e-09 6.3046393819e-09 7.2803979324e-09 7.2828558557e-09 1.0108617198e-09 2.0029815012e-09 9.6495097375e-10 7.2853915403e-09 
6.309797964e-09 1.0069630571e-09 2.0082522496e-09 4.5687282397e-09 5.5400920606e-09 5.7860698127e-09 2.7392010601e-09 3.6797811926e-09 4.1278471581e-09 
2.498971769e-09 5.5456264892e-09 4.5745803776e-09 3.6863889474e-09 2.7475981527e-09 3.945410676e-09 4.9727040821e-09 5.2009383087e-09 5.2817499552e-09 
5.5428598656e-09 5.4249355252e-09 5.6836790975e-09 1.0214642716e-08 5.1531032593e-05 7.8759295781e-06 1.7244424689e-05 1.708456636e-06 1.0991717926e-05 
1.4115826429e-05 4.7737088463e-06 3.9218790686e-05 4.5511189887e-05 4.8621313809e-05 2.0376270209e-05 2.3511124451e-05 2.6648650529e-05 2.9788514169e-05 
3.2930381365e-05 3.607391816e-05 4.2364664943e-05 5.6109471478e-07 1.0503202939e-08 4.394643065e-05 3.7657257573e-05 9.4759001874e-06 1.2585732468e-05 
6.3799143354e-06 1.8831928974e-05 2.196221642e-05 2.5096112189e-05 2.8233026228e-05 3.1372470959e-05 4.7093421556e-05 1.5703381495e-05 3.3537966912e-06 
3.4512844063e-05 4.0801820884e-05 3.3470267059e-06 9.4727797873e-06 4.0801156911e-05 1.5706891227e-05 4.709284783e-05 1.8830392987e-05 2.1960910944e-05 
3.1371581775e-05 3.4514403529e-05 1.2583394496e-05 2.5094979952e-05 2.8232028946e-05 6.3885554027e-06 3.7656530859e-05 4.3947645204e-05 5.0145894644e-05 
5.0171621968e-05 8.41090116e-07 1.2774258352e-08 5.2927836303e-05 5.291032765e-05 1.8206655644e-07 2.2435508173e-07 5.13238544e-09 5.1919793033e-05 
4.9700975444e-06 4.2387924176e-05 2.1841489907e-06 7.99779188e-06 1.1079934796e-05 1.7301060103e-05 2.0424312919e-05 2.3552840782e-05 2.6685511904e-05 
2.9821529976e-05 3.2960273998e-05 3.9243913053e-05 4.553284556e-05 4.8678278713e-05 1.4180244723e-05 4.9572331384e-06 1.4184831675e-05 3.6101222311e-05 
4.5531484542e-05 4.86770132e-05 1.9127358217e-06 7.9896040634e-06 1.1074032232e-05 1.7297318274e-05 2.0421160339e-05 2.3550122112e-05 2.6683126074e-05 
2.9819407572e-05 3.2958365281e-05 3.6099490549e-05 3.9242330426e-05 4.2386465866e-05 5.1579234979e-05 3.8639151228e-09 5.996254899e-09 9.9201846734e-08 
8.6484447398e-09 5.3206293213e-05 1.173023389e-06 5.348584915e-05 2.7153206566e-09 4.8152180554e-09 4.6122893814e-09 5.4317204326e-09 3.9316770371e-09 
5.243490767e-09 6.5572916713e-09 7.6450118846e-09 2.4633554559e-07 5.534172571e-07 1.1215542958e-06 1.6981945638e-06 5.8862740092e-07 5.277002256e-09 
5.1947243533e-07 2.0801576874e-07 1.5302917219e-06 9.6936261039e-07 4.3278994051e-07 4.2803407583e-05 4.2017690458e-05 4.4365076384e-05 4.357905161e-05 
4.3166986393e-05 5.3713840598e-05 5.2927724551e-05 5.3692903589e-05 5.3853137144e-05 5.3831818021e-05 5.3067037358e-05 4.3577007701e-05 4.4363067116e-05 
4.2015614967e-05 4.280136873e-05 4.3165610554e-05 7.7390354405e-09 5.6829680997e-08 5.8660419359e-08 3.6941545373e-09 3.6324222118e-09 3.7059405003e-09 
4.590349597e-09 2.9637477604e-09 3.4375965671e-09 3.6116064121e-09 4.0947993909e-09 6.8376940831e-09 7.3090007248e-09 7.9244867227e-09 9.2533631676e-09 
9.9249350338e-09 5.3132940463e-09 5.9052785225e-09 6.0042912932e-09 3.7540101204e-08 5.9927695606e-08 5.5559559519e-08 2.8126446557e-06 2.2200716566e-06 
1.4866392003e-06 3.9913525874e-06 3.304725868e-06 2.7186004816e-06 5.5149302841e-06 4.797434587e-06 4.158570391e-06 6.9260386047e-06 6.1768734813e-06 
5.6653213741e-06 8.4926280055e-06 7.7376595576e-06 7.1918256725e-06 9.9703748351e-06 9.2037055563e-06 8.7297584399e-06 1.1549285294e-05 1.0781137889e-05 
1.0276414911e-05 1.3056875493e-05 1.2282873649e-05 1.182829969e-05 1.4638933575e-05 1.3864444654e-05 1.3383952111e-05 1.6163257873e-05 1.5385786852e-05 
1.4942811229e-05 1.7744797582e-05 1.6967215717e-05 1.6502861435e-05 1.9278379764e-05 1.8498631945e-05 1.8063999911e-05 2.0860845517e-05 2.0081073448e-05 
1.9627013857e-05 2.2401503855e-05 2.1620160877e-05 2.119122862e-05 2.3984047207e-05 2.320268646e-05 2.2756513318e-05 2.5530011798e-05 2.4747451315e-05 
2.4322761023e-05 2.7112624047e-05 2.6330047277e-05 2.588988006e-05 2.8662725036e-05 2.7879202243e-05 2.7457790696e-05 3.0245393084e-05 2.9461858808e-05 
2.9026420811e-05 3.1798796481e-05 3.1014501867e-05 3.0595705059e-05 3.3381488485e-05 3.2597192301e-05 3.2165582112e-05 3.4937923807e-05 3.4153019233e-05 
3.3736246173e-05 3.6520226204e-05 3.5735326679e-05 3.5307128491e-05 3.8078467282e-05 3.7293067673e-05 3.6878210211e-05 3.9661032276e-05 3.8875665121e-05 
3.8449909598e-05 4.1221023063e-05 4.0435253663e-05 4.002193743e-05 4.1594245738e-05 4.5946878886e-05 4.5160936642e-05 4.4739702984e-05 4.7509312693e-05 
4.6723130746e-05 4.6312364531e-05 4.909101521e-05 4.8304934679e-05 4.7885309079e-05 5.0620807145e-05 4.9834559666e-05 4.9424432799e-05 5.2283351718e-05 
5.1497183407e-05 5.1045395767e-05 5.2562908052e-05 5.3545722509e-05 5.3553019938e-05 5.3064384386e-05 5.3544567652e-05 5.353572035e-05 5.2913850554e-05 
5.3196312702e-05 4.5158999431e-05 4.5944977146e-05 4.4738373621e-05 4.6721762256e-05 4.7507969232e-05 4.6311442292e-05 4.830313387e-05 4.9089245835e-05 
4.7884420259e-05 4.9820655293e-05 5.060692612e-05 4.9410964042e-05 5.1325606463e-05 5.2111812163e-05 5.0862329973e-05 5.2774480656e-05 5.2244348445e-05 
2.0649300168e-06 2.6564497875e-06 1.5288847347e-06 3.2881358869e-06 3.9762738476e-06 2.5711870091e-06 4.7781243511e-06 5.4982961033e-06 4.1490000804e-06 
6.1618337277e-06 6.912578478e-06 5.6544715736e-06 7.7256908534e-06 8.481745899e-06 7.1831896811e-06 9.196248627e-06 9.963493473e-06 8.7245147228e-06 
1.0772571465e-05 1.15412918e-05 1.0271964667e-05 1.2277306329e-05 1.3051647985e-05 1.1824438836e-05 1.385781442e-05 1.4632666463e-05 1.3380551996e-05 
1.5379767783e-05 1.6157534327e-05 1.4938673283e-05 1.6961828076e-05 1.7739652927e-05 1.6499122478e-05 1.8494984549e-05 1.9274885823e-05 1.8061505124e-05 
2.007654574e-05 2.0856493024e-05 1.962472552e-05 2.1617061349e-05 2.2398517615e-05 2.118911642e-05 2.3198789567e-05 2.398028258e-05 2.2754553214e-05 
2.4744762317e-05 2.5527409839e-05 2.4320933528e-05 2.6326632778e-05 2.7109312912e-05 2.5888169266e-05 2.7876832293e-05 2.8660424043e-05 2.7456183338e-05 
2.9458825135e-05 3.0242442407e-05 2.9024905826e-05 3.1012386994e-05 3.1796737585e-05 3.0594273011e-05 3.2594466919e-05 3.3378831235e-05 3.2164224998e-05 
3.4150383405e-05 3.4935350586e-05 3.3734464211e-05 3.5732856048e-05 3.6517812512e-05 3.5305430306e-05 3.7291335291e-05 3.8076774008e-05 3.687703992e-05 
3.8873408813e-05 3.9658824371e-05 3.8448791633e-05 4.0433668576e-05 4.1219471129e-05 4.0020867634e-05 4.1593220055e-05 1.0624189467e-08 5.3577843273e-08 
5.9895999099e-09 1.4133786137e-08 5.0684385565e-08 1.36198871e-07 2.0400396784e-08 1.2736275431e-07 5.0836176086e-05 5.0149344292e-05 5.0848841989e-05 
5.1551088624e-05 5.1720779566e-05 5.2228613966e-05 5.2218815941e-05 5.2422230353e-05 8.6662971114e-06 9.4324990028e-06 8.6642168163e-06 7.9075940297e-06 
7.1108433188e-06 6.3225342417e-06 7.1142748094e-06 7.9034557849e-06 1.8033107648e-05 1.8809942402e-05 1.8032123761e-05 1.7259069533e-05 1.6467291919e-05 
1.5679731924e-05 1.646876705e-05 1.7257194189e-05 1.0304449438e-06 5.0984505947e-07 1.1512755755e-06 1.6922035024e-06 1.1852715827e-06 2.5011334263e-06 
3.2344929335e-06 2.4831560639e-06 1.861991528e-06 1.0222385661e-05 1.0220625094e-05 1.1014580157e-05 1.1781291151e-05 1.2552945112e-05 1.1779765232e-05 
1.1011612194e-05 1.3342349114e-05 1.3341006332e-05 1.4133684978e-05 1.4903540619e-05 1.490517358e-05 1.4131383406e-05 5.5628292815e-06 5.5671994945e-06 
4.8186346266e-06 4.027510062e-06 4.0237821391e-06 4.8251835743e-06 3.8435301963e-05 3.8434861639e-05 3.7646204646e-05 3.9225270606e-05 4.0007902881e-05 
4.0791620154e-05 4.0007481637e-05 3.9224478983e-05 4.472650892e-05 4.3937873765e-05 4.4727032472e-05 4.5516094062e-05 4.630023476e-05 4.7084583053e-05 
4.6299871478e-05 4.5516774772e-05 4.7855211457e-05 4.7854884127e-05 4.8644877384e-05 4.8644278828e-05 4.9381268619e-05 4.9394166537e-05 1.9598558091e-05 
1.9597655825e-05 2.0388686119e-05 2.1164852551e-05 2.1943335898e-05 2.1164019934e-05 2.0387107143e-05 2.2731933283e-05 2.2731160712e-05 2.3521900627e-05 
2.429974807e-05 2.5079568746e-05 2.4299027895e-05 2.3520539551e-05 2.5868246416e-05 2.5867572269e-05 2.665816908e-05 2.7437380796e-05 2.8218306028e-05 
2.7436747499e-05 2.6656974975e-05 2.9007103993e-05 2.9006507102e-05 2.9797036977e-05 3.0577370867e-05 3.1359213726e-05 3.0576806724e-05 2.9795974927e-05 
3.2148135981e-05 3.2147601357e-05 3.293809573e-05 3.3718755625e-05 3.3719457541e-05 3.4501967512e-05 3.2937140758e-05 3.6862981915e-05 3.6862520969e-05 
3.6080962658e-05 3.5290413731e-05 3.5291082655e-05 3.6080096299e-05 4.3153313971e-05 4.3153855721e-05 4.236993368e-05 4.1580741617e-05 4.1580337487e-05 
4.2370663207e-05 2.4090920562e-07 3.4129609644e-07 3.6847916454e-07 8.4145359316e-07 6.7855980578e-06 5.3699745719e-06 4.0521279082e-06 2.9415637465e-06 
8.2530807009e-06 1.1265420818e-05 1.2793283236e-05 1.4329759401e-05 1.5872365949e-05 1.7419629484e-05 1.8970576321e-05 2.0524514718e-05 2.2080939654e-05 
2.3639467878e-05 2.5199800044e-05 2.6761696464e-05 2.8324960825e-05 2.9889428948e-05 3.1454960863e-05 3.3021435115e-05 3.4588744602e-05 3.6156793498e-05 
3.7725494931e-05 3.9294769242e-05 4.0782805665e-05 9.750172409e-06 1.6560388726e-06 1.6661733715e-06 4.2436419256e-05 4.2433063791e-05 2.2910653934e-06 
4.1649593526e-05 3.1884572177e-06 2.6072661993e-06 2.6171777083e-06 4.3676327859e-06 3.743330841e-06 3.4821612354e-06 5.716462667e-06 5.0286954432e-06 
4.6954378857e-06 7.1488841405e-06 6.4255097245e-06 6.0692473064e-06 8.6254633558e-06 7.8831921578e-06 7.5146298458e-06 1.0128395082e-05 9.3743834688e-06 
8.9985981322e-06 1.1647359759e-05 1.0886119835e-05 1.0505905519e-05 1.3177780257e-05 1.241132504e-05 1.2028165315e-05 1.4716107852e-05 1.3946183454e-05 
1.3560589769e-05 1.6260038736e-05 1.5487457261e-05 1.5100436292e-05 1.78083576e-05 1.7033714256e-05 1.6645486487e-05 1.936015893e-05 1.8583867634e-05 
1.8194690945e-05 2.0914804097e-05 2.0137158506e-05 1.9747206426e-05 2.2471824734e-05 2.1693041916e-05 2.1302442501e-05 2.4030861997e-05 2.325111045e-05 
2.2859961077e-05 2.5591634722e-05 2.4811046616e-05 2.4419424504e-05 2.7153915522e-05 2.6372599149e-05 2.598056575e-05 2.871751808e-05 2.7935561927e-05 
2.7543168451e-05 3.0282284805e-05 2.9499764844e-05 2.9107053561e-05 3.18480817e-05 3.1065062095e-05 3.0672069803e-05 3.3414790983e-05 3.2631329111e-05 
3.22380871e-05 3.4982309387e-05 3.4198455028e-05 3.3804991592e-05 3.655054318e-05 3.5766342389e-05 3.5372682162e-05 3.8119408125e-05 3.7334901711e-05 
3.6941067693e-05 3.9688825662e-05 3.8904052534e-05 3.8510065128e-05 4.1217852216e-05 4.0432853154e-05 4.0038735261e-05 4.1214512236e-05 3.1900512463e-06 
3.747376429e-06 4.3698299206e-06 5.0291052792e-06 5.7173748707e-06 6.4256381487e-06 7.1483905223e-06 7.8822216254e-06 8.6243746508e-06 9.3729053035e-06 
1.0126512046e-05 1.0884288075e-05 1.1645500311e-05 1.2409443951e-05 1.3175651709e-05 1.394383462e-05 1.4713713096e-05 1.548500464e-05 1.6257527278e-05 
1.7031142596e-05 1.7805730106e-05 1.8581188347e-05 1.9357431051e-05 2.0134385859e-05 2.0911990259e-05 2.1690189626e-05 2.246893624e-05 2.3248188417e-05 
2.4027908979e-05 2.4808064363e-05 2.5588624639e-05 2.6369563133e-05 2.7150855436e-05 2.7932478905e-05 2.8714412995e-05 2.949663912e-05 3.0279139868e-05 
3.1061898688e-05 3.1844900358e-05 3.2628130952e-05 3.3411577145e-05 3.4195225994e-05 3.4979065478e-05 3.5763084506e-05 3.6547272259e-05 3.7331618071e-05 
3.8116111918e-05 3.8900744509e-05 3.968550666e-05 4.0429523896e-05 1.227566521e-08 5.1523293915e-05 3.2884779011e-06 6.3149978257e-06 9.4246995553e-06 
1.2545219169e-05 1.5671940732e-05 1.8802191922e-05 4.8613566903e-05 2.1935588074e-05 2.5071821749e-05 2.8210559579e-05 3.1351467708e-05 3.4494212236e-05 
3.7638459198e-05 4.0612489066e-05 4.5674874271e-05 7.3433366817e-07 4.3132244844e-05 7.9853511792e-09 3.2934792523e-05 1.7259734559e-05 7.9180679465e-06 
1.4136182432e-05 4.7115422383e-05 3.6077010405e-05 2.0388079422e-05 2.3520353986e-05 2.6655901053e-05 2.9794197666e-05 4.8471426052e-06 1.1018893179e-05 
3.9189982584e-05 3.918251459e-05 4.7121905876e-05 4.847397804e-06 1.7259838672e-05 2.0388181697e-05 2.3520454729e-05 2.6656000489e-05 2.9794295953e-05 
1.102112781e-05 7.918173816e-06 1.4136290581e-05 3.293488977e-05 3.6077640265e-05 5.0138484902e-05 5.0163543718e-05 1.1428015383e-08 2.0701037318e-06 
2.0643617611e-06 5.2919904586e-05 2.8824648326e-07 5.290288167e-05 2.7857057054e-07 4.1852631679e-05 4.4441932967e-05 4.4274497502e-05 4.1808141442e-05 
4.0689686008e-09 5.1911595453e-05 6.4623308197e-06 9.524632546e-06 1.2620829927e-05 1.5732678403e-05 2.1979178015e-05 2.5110024834e-05 2.8244558936e-05 
3.1382093266e-05 3.4522068541e-05 3.7657403316e-05 4.8654849458e-05 3.4951217944e-06 6.4594508259e-06 3.4999428271e-06 9.5227254948e-06 1.2619419074e-05 
1.5731570909e-05 1.8852034828e-05 2.1978421422e-05 2.5109378541e-05 2.824399858e-05 3.1381601738e-05 3.4521633363e-05 3.7663612181e-05 1.8852938132e-05 
4.8656302613e-05 5.1571931038e-05 4.5664503659e-05 4.0663183112e-05 4.5708523999e-05 4.0619270295e-05 4.2463516649e-09 1.1075462439e-07 1.1861122814e-06 
1.20332637e-06 1.2906598021e-07 5.8112377311e-09 8.6286353544e-09 4.2879698838e-05 5.3198018095e-05 4.3164783056e-05 5.3478688264e-05 2.746197378e-09 
4.4579845633e-07 1.4962766359e-07 1.7239843944e-06 1.1582561792e-06 1.9208319225e-07 6.2429324843e-07 6.6818721731e-07 4.6011107286e-09 4.3051703435e-09 
3.1216526075e-09 4.7781513202e-09 6.2830517024e-09 4.9696192938e-09 6.2813822275e-09 5.4305248843e-09 4.304435732e-05 4.2258587641e-05 4.4524667642e-05 
4.3738651386e-05 4.3576649403e-05 1.5141157298e-07 4.7298063183e-07 1.1535632087e-06 1.705844152e-06 6.6901393704e-07 6.2953358044e-07 2.0829158896e-07 
4.2401277248e-05 4.3187058829e-05 4.3972903186e-05 5.3705431853e-05 5.3684693799e-05 5.2919305937e-05 5.38245649e-05 5.3846088526e-05 5.3059999133e-05 
5.3645894746e-08 1.0105603693e-08 3.5482934637e-08 4.5330931629e-09 3.9870875342e-09 5.7277603453e-09 4.789108366e-09 3.0056617499e-09 3.5914886366e-09 
3.8075448889e-09 4.162543851e-09 7.0158675383e-09 7.0986460577e-09 8.4098925128e-09 7.6536880035e-09 9.6984549648e-09 5.5867554431e-09 6.5378002955e-09 
7.5524478891e-09 2.7153282324e-06 2.0995801711e-06 1.5959506776e-06 4.0799288443e-06 3.4133327575e-06 2.7726800625e-06 5.4198714251e-06 4.6892369546e-06 
4.146853449e-06 6.972658583e-06 6.2304041235e-06 5.6519287305e-06 8.4275940302e-06 7.6671527647e-06 7.17956616e-06 1.000159194e-05 9.2381764874e-06 
8.7190129548e-06 1.1498195671e-05 1.0726900014e-05 1.0265313738e-05 1.3079111216e-05 1.2307094788e-05 1.1817683713e-05 1.4597754277e-05 1.3821542515e-05 
1.3374287155e-05 1.6179019104e-05 1.5402708004e-05 1.4932770165e-05 1.7709487898e-05 1.6930644022e-05 1.6493046187e-05 1.929108236e-05 1.8512176429e-05 
1.8054847414e-05 2.0829638127e-05 2.0048958759e-05 1.9617983837e-05 2.2411416345e-05 2.1630696771e-05 2.1182301118e-05 2.3955883611e-05 2.3173837509e-05 
2.2747674224e-05 2.5537808479e-05 2.4755727811e-05 2.4313998673e-05 2.7086810615e-05 2.6303697629e-05 2.5881185524e-05 2.866886188e-05 2.7885719929e-05 
2.7449156026e-05 3.0221449868e-05 2.9437484439e-05 2.9017839895e-05 3.1803595707e-05 3.1019610894e-05 3.0587172159e-05 3.335906965e-05 3.2574419076e-05 
3.2157092878e-05 3.4941260064e-05 3.4156604348e-05 3.3727544966e-05 3.6498733946e-05 3.5713530393e-05 3.5298240099e-05 3.8081241503e-05 3.7296058758e-05 
3.6869604838e-05 3.9621977633e-05 3.8836379844e-05 3.8422284433e-05 4.1128742871e-05 4.0343142846e-05 3.9900517503e-05 4.1212610913e-05 4.1717817449e-05 
4.2342927354e-05 3.7733512566e-08 4.1767559425e-08 5.4600970657e-08 2.0977798089e-06 2.7164882201e-06 1.5851784236e-06 3.4195741897e-06 4.0870290312e-06 
2.7779792593e-06 4.6918371306e-06 5.421932258e-06 4.1483289026e-06 6.2345776242e-06 6.9764220435e-06 5.6531836643e-06 7.6685529529e-06 8.4288391822e-06 
7.1805680456e-06 9.2409593668e-06 1.000414541e-05 8.719810909e-06 1.073012207e-05 1.1501193787e-05 1.0267566129e-05 1.2309140519e-05 1.3081025407e-05 
1.1819629612e-05 1.3822229015e-05 1.4598396021e-05 1.3374763803e-05 1.5404308776e-05 1.6180534617e-05 1.4933185861e-05 1.69311756e-05 1.7709988759e-05 
1.6493412873e-05 1.8513478212e-05 1.9292324279e-05 1.8055172904e-05 2.004938167e-05 2.083003895e-05 1.9618274503e-05 2.1631784772e-05 2.2412460157e-05 
2.1182562132e-05 2.3174181028e-05 2.3956210522e-05 2.2747909676e-05 2.4756655635e-05 2.5538702364e-05 2.4314211869e-05 2.6303980674e-05 2.7087080731e-05 
2.5881379166e-05 2.7886523308e-05 2.8669638387e-05 2.7449332363e-05 2.9437719932e-05 3.0221675021e-05 2.9018000804e-05 3.1020314833e-05 3.1804277846e-05 
3.058731924e-05 3.2574616234e-05 3.3359258355e-05 3.2157227488e-05 3.4157227011e-05 3.4941864686e-05 3.3727668281e-05 3.5714393902e-05 3.6499575502e-05 
3.5298824317e-05 3.7293337664e-05 3.8078503247e-05 3.6866853611e-05 3.8840787871e-05 3.9626358712e-05 3.8423001025e-05 4.0365538729e-05 4.115112032e-05 
3.9926244353e-05 4.1256491784e-05 4.1739644528e-05 4.2507532673e-05 5.3544979928e-05 5.3537884167e-05 5.3056280124e-05 5.3528121925e-05 5.3537173275e-05 
5.2906160945e-05 5.3189009811e-05 4.5222112444e-05 4.6008085701e-05 4.5052135701e-05 4.46056732e-05 4.3801991261e-05 4.6730568959e-05 4.7516733595e-05 
4.6389533591e-05 4.8288988348e-05 4.9075075066e-05 4.78847621e-05 4.9826214001e-05 5.0612470811e-05 4.9408645374e-05 5.1488791614e-05 5.2274969677e-05 
5.1037256778e-05 5.2554671171e-05 4.6029696274e-05 4.5243705582e-05 4.499128642e-05 4.751944197e-05 4.6733258239e-05 4.6414757425e-05 4.9075508456e-05 
4.8289410298e-05 4.7888675134e-05 5.0599779067e-05 4.9813517677e-05 4.9396883813e-05 5.21047051e-05 5.1318509152e-05 5.0854973935e-05 5.2236972597e-05 
5.2767299604e-05 4.7281075998e-09 1.1998487291e-08 3.7557775812e-08 1.223331546e-08 4.3887010109e-08 5.6368803343e-08 1.2001046202e-07 5.8903175159e-08 
5.0840935361e-05 5.0141598814e-05 5.0828599395e-05 5.1543566863e-05 5.171280984e-05 5.2211225373e-05 5.2220777346e-05 5.2414166711e-05 4.0486519851e-06 
4.7662424527e-06 4.0491294226e-06 3.3269172589e-06 3.3252032011e-06 1.8649272787e-06 2.6037105673e-06 2.6042385478e-06 7.1047978431e-06 7.868166325e-06 
7.1052031167e-06 6.3525181241e-06 5.5572157248e-06 5.5577103828e-06 6.3510341731e-06 8.6573103402e-06 8.6576262748e-06 9.450022425e-06 1.098394887e-05 
1.021417411e-05 1.0213283089e-05 9.4490604016e-06 1.3333833625e-05 1.4108039498e-05 1.3334022012e-05 1.2564338364e-05 1.177317171e-05 1.1772402653e-05 
1.2563629773e-05 1.6460181643e-05 1.723665824e-05 1.6460326341e-05 1.5687286376e-05 1.4896487612e-05 1.4896651581e-05 1.5686731024e-05 1.8024795926e-05 
1.8024924285e-05 1.8815004291e-05 1.9590298206e-05 2.0368513654e-05 1.9590412826e-05 1.8814551729e-05 4.7108779453e-05 4.7865320038e-05 4.7861881472e-05 
4.8629183338e-05 4.862999207e-05 4.9386251266e-05 4.937369247e-05 2.1156634384e-05 2.1156737266e-05 2.1946588277e-05 2.2723751148e-05 2.3503370315e-05 
2.2723843964e-05 2.1946209424e-05 2.4291596713e-05 2.429168072e-05 2.5081458756e-05 2.5860122595e-05 2.6640897916e-05 2.5860198914e-05 2.5081135245e-05 
2.7429280871e-05 2.7429350337e-05 2.8219133279e-05 2.8999025898e-05 2.9780762732e-05 2.8999089307e-05 2.8218852852e-05 3.2140094735e-05 3.2922630878e-05 
3.2140147777e-05 3.1359188309e-05 3.0569311869e-05 3.05693698e-05 3.1358942368e-05 3.3711329909e-05 3.3711378466e-05 3.4501232774e-05 3.6066170628e-05 
3.5283112722e-05 3.5282882591e-05 3.4501015066e-05 3.6855114679e-05 3.6854896153e-05 3.7644700448e-05 3.8407640471e-05 3.9174364688e-05 3.8411178112e-05 
3.7641570888e-05 3.9894574603e-05 3.9898063971e-05 4.0632286721e-05 4.0610509954e-05 4.1208626141e-05 4.1824126821e-05 4.1231131387e-05 4.6396046633e-05 
4.6392612898e-05 4.5664743812e-05 4.5686928248e-05 4.4350074833e-05 4.4971778266e-05 4.5057025579e-05 1.3411434355e-06 1.3384147952e-06 8.6687091556e-07 
8.8179924742e-07 4.1370114792e-07 4.1332649434e-07 4.2468662499e-05 4.2490762074e-05 4.3142824991e-05 4.3700818437e-05 4.3785546962e-05 4.3000958874e-05 
3.3029777607e-07 3.4113931398e-08 5.2611519417e-09 5.2896223431e-09 5.1673393406e-09 5.1516633485e-09 5.3555727193e-09 5.1863498189e-09 5.4356343725e-09 
2.4803618497e-07 6.6247425866e-07 6.35370853e-07 6.6018535834e-07 2.3330145227e-07 5.4521427938e-09 4.3835379297e-09 5.4880345137e-09 8.9292732097e-08 
1.3521425591e-08 8.2581551271e-09 1.3808916541e-07 5.0369337878e-09 5.5865601367e-09 1.6425678229e-08 8.3155935612e-08 1.8974494132e-05 4.07174846e-06 
6.7968699188e-06 2.953588692e-06 5.3842849803e-06 8.2623391804e-06 9.7579854014e-06 1.1272161546e-05 1.4335012601e-05 1.5877090655e-05 1.742391546e-05 
2.0528119345e-05 2.2084274694e-05 2.3642568458e-05 2.520269487e-05 2.6764409288e-05 2.8327511519e-05 2.9891834304e-05 3.1457235192e-05 3.3023590711e-05 
3.4590792108e-05 3.6158742176e-05 3.7727352821e-05 3.9296543407e-05 4.0784506857e-05 1.2799198535e-05 1.6807788603e-06 4.2438561113e-05 1.6798353973e-06 
4.243418213e-05 2.6342536966e-06 3.2111505754e-06 2.3057033962e-06 2.6099374344e-06 3.7658762825e-06 4.3905148925e-06 3.5012215106e-06 5.0482703376e-06 
5.7336328347e-06 4.7121649035e-06 6.4407317166e-06 7.1625694111e-06 6.0819055819e-06 7.8956086108e-06 8.6368040749e-06 7.5248078579e-06 9.3848120872e-06 
1.0138042844e-05 9.0070754731e-06 1.0895085693e-05 1.1655732272e-05 1.0513144231e-05 1.2419171442e-05 1.3185157098e-05 1.2034469075e-05 1.3953139039e-05 
1.4722688866e-05 1.3566156557e-05 1.5493699864e-05 1.6265975466e-05 1.5105412461e-05 1.7039372001e-05 1.7813760239e-05 1.664998184e-05 1.8589036121e-05 
1.9365111734e-05 1.8198785115e-05 2.0141912083e-05 2.0919373067e-05 1.9750961554e-05 2.169743935e-05 2.2476062336e-05 2.1305907477e-05 2.3255198841e-05 
2.4034810745e-05 2.2863174928e-05 2.4814864395e-05 2.5595329391e-05 2.4422418965e-05 2.6376177953e-05 2.7157385053e-05 2.5983366861e-05 2.7938928225e-05 
2.8720786667e-05 2.7545797942e-05 2.950294088e-05 3.028537302e-05 2.9109529645e-05 3.106806686e-05 3.1851007035e-05 3.0674407999e-05 3.2634178819e-05 
3.3417568565e-05 3.2240300629e-05 3.4201163747e-05 3.4984952279e-05 3.3807091903e-05 3.5768922311e-05 3.6553062794e-05 3.5374679166e-05 3.733736349e-05 
3.8121814342e-05 3.6942970052e-05 3.8906405411e-05 3.9691127324e-05 3.8511880293e-05 4.0435108253e-05 4.1220060492e-05 4.004047215e-05 4.1651255423e-05 
4.1215665887e-05 3.2003564563e-06 4.3826655999e-06 3.7618712212e-06 5.7270508425e-06 5.0403969796e-06 7.1560943013e-06 6.4342415309e-06 8.6307367629e-06 
7.8892048656e-06 1.013189355e-05 9.3787385266e-06 1.1650158211e-05 1.0889283688e-05 1.3179747172e-05 1.2413803511e-05 1.4717356304e-05 1.3947688529e-05 
1.6260804986e-05 1.5488456729e-05 1.7808703251e-05 1.7034261218e-05 1.9360147739e-05 1.8584027987e-05 2.0914488143e-05 2.0136988962e-05 2.247124528e-05 
2.1692589739e-05 2.403005343e-05 2.3250412425e-05 2.5590624357e-05 2.4810134197e-05 2.7152726927e-05 2.6371496849e-05 2.8716170072e-05 2.7934291605e-05 
3.028079426e-05 2.9498343497e-05 3.1846462052e-05 3.1063505576e-05 3.3413054761e-05 3.26296496e-05 3.4980466468e-05 3.4196664429e-05 3.6548603143e-05 
3.5764449669e-05 3.8117378262e-05 3.7332916035e-05 3.968671352e-05 3.8901980481e-05 4.04307043e-05 4.7148725913e-05 4.8719963499e-05 5.0291361654e-05 
5.1781071166e-05 4.565947132e-05 4.4009065844e-05 5.3436666005e-05 4.400470455e-05 5.343239055e-05 4.5228026216e-05 4.6013488606e-05 4.4792253496e-05 
4.5223678047e-05 4.6758111718e-05 4.7543680785e-05 4.640407394e-05 4.8329296638e-05 4.911495449e-05 4.793432277e-05 4.9900650735e-05 5.0686381419e-05 
4.950564439e-05 5.1431234179e-05 5.2217022711e-05 5.1036203302e-05 5.2648696757e-05 5.2212737864e-05 4.600914845e-05 4.7539355517e-05 4.6753778873e-05 
4.9110643705e-05 4.8324978745e-05 5.068208411e-05 4.9896346826e-05 5.1426943055e-05 5.4165090386e-05 5.4164778138e-05 5.4187569368e-05 5.4186738919e-05 
5.4204441871e-05 5.4183547724e-05 5.4202339563e-05 5.4182586894e-05 5.4203069269e-05 5.4201300405e-05 5.4179442288e-05 5.4200237856e-05 5.4199532231e-05 
5.417894833e-05 5.4171751357e-05 5.4164231366e-05 5.4173811437e-05 5.4164025154e-05 5.4171132691e-05 5.4161277108e-05 5.4173240001e-05 5.4160307886e-05 
5.4167728212e-05 5.4167410158e-05 5.416020189e-05 4.5657950552e-05 4.7147259552e-05 4.8718551255e-05 5.0290000195e-05 5.1779754993e-05 5.3434990539e-05 
4.4006990674e-05 4.4003616522e-05 5.3431527703e-05 4.4790699993e-05 4.6011508906e-05 4.5226008989e-05 4.5222621148e-05 4.7541771521e-05 4.6756166811e-05 
4.6402580664e-05 4.9113113066e-05 4.8327421871e-05 4.7932883912e-05 5.0684603653e-05 4.9898841672e-05 4.9504257926e-05 5.221530319e-05 5.1429485203e-05 
5.1034864661e-05 5.2647405462e-05 5.2211849998e-05 4.6008112699e-05 4.6752762868e-05 4.7538359801e-05 4.8324002668e-05 4.9109686657e-05 4.9895408153e-05 
5.0681163162e-05 5.1426038434e-05 4.4032301954e-09 4.0635539108e-09 3.5879715382e-09 1.8170440274e-09 1.9993388531e-09 2.8846626215e-09 2.2966633116e-09 
8.8965370885e-10 4.9926469616e-09 4.8650784135e-09 4.842859744e-09 4.3409873959e-09 4.5400350016e-09 5.0580540852e-09 4.9361852966e-09 4.5877357193e-09 
4.3787274095e-09 3.8682398453e-09 3.4298622837e-09 3.9607262616e-09 3.936553408e-09 3.2110834242e-09 2.492016474e-09 2.9800199185e-09 2.7938949372e-09 
2.3405864413e-09 2.1244370866e-09 2.2436412966e-09 2.135237709e-09 3.4028687346e-09 3.3817708623e-09 2.6874785283e-09 3.0509448124e-09 3.0278548231e-09 
3.7665820317e-09 3.0715652306e-09 2.5257917003e-09 2.9507754725e-09 2.4467782351e-09 2.3234854805e-09 1.9134091616e-09 2.2871064436e-09 3.3473636316e-09 
3.8467477847e-09 1.1450361296e-09 1.1606891134e-09 1.4971928788e-09 1.7195784619e-09 1.7221277453e-09 1.3699201382e-09 2.838171541e-09 2.7341762505e-09 
1.8722163902e-09 1.9007976087e-09 2.1563066653e-09 2.175259476e-09 1.8400844653e-09 2.8912361759e-09 2.5343222377e-09 1.8208025807e-09 2.1556763232e-09 
2.8692641519e-09 2.4636553382e-09 2.3910296522e-09 2.2260196887e-09 3.008277517e-09 4.2371199944e-09 4.2744495756e-09 2.2775072897e-09 4.3732159392e-09 
4.3266774836e-09 4.200385234e-09 3.5051718993e-09 3.6786000215e-09 2.2844554658e-09 3.2910902017e-09 5.288051284e-09 4.9381102431e-09 4.8927634559e-09 
5.4140747249e-09 5.083424577e-09 3.3255387335e-09 3.3497709355e-09 4.9642777922e-09 5.068885214e-09 5.6839741054e-09 5.0639921575e-09 4.9622069652e-09 
2.0641276323e-09 4.8344619384e-09 2.8630247416e-10 2.1921769854e-10 3.2669251051e-10 1.3885319824e-10 4.0034472116e-10 1.3868876484e-10 3.990663076e-10 
3.2596109975e-10 3.6593360978e-09 3.911567702e-09 3.6435869246e-09 3.9388642856e-09 3.6694543391e-09 3.8763848286e-09 2.6579230897e-09 2.3904162653e-09 
2.0563164246e-09 2.1040628935e-09 1.8527931075e-09 1.8430518098e-09 1.6605140591e-09 1.8810977438e-09 1.9079295552e-09 5.3052258637e-09 5.2403915285e-09 
2.1766445574e-09 2.2460866397e-09 1.9940092498e-09 1.4305046176e-09 1.8623011347e-09 2.3718717831e-09 3.1668469065e-09 1.8801569907e-09 1.4459934379e-09 
3.1904504289e-09 2.6713194288e-09 4.3841975971e-09 4.3498761523e-09 4.2850986655e-09 1.6192356569e-09 1.586451302e-09 1.0175198712e-09 9.1694336513e-10 
1.5665932529e-09 1.2643237449e-09 9.1304047659e-10 1.0087522073e-09 1.5679420107e-09 3.56015587e-09 5.0738203678e-09 2.5427210227e-09 2.5474823585e-09 
3.2160239275e-09 2.7831568111e-09 2.7828198602e-09 1.2297282759e-09 1.2046145146e-09 1.4397738689e-09 3.6862348597e-09 1.7968913066e-09 1.7299612418e-09 
1.6627318536e-09 1.3784548749e-09 1.8078384308e-09 1.6674732525e-09 2.1077863133e-09 1.6754249877e-09 1.6727962708e-09 2.0740097764e-09 1.9698526217e-09 
2.0870828689e-09 1.9809968981e-09 2.9802458262e-09 4.1851723452e-09 4.1633240004e-09 5.0594854985e-09 4.5390839714e-09 4.6989522019e-09 3.6802954142e-09 
5.7322402732e-09 4.7330198635e-09 3.8903286856e-09 5.3251230519e-09 3.8472051087e-09 2.8172088092e-09 1.7541247672e-09 3.1171163819e-09 2.7955757863e-09 
4.9460329208e-09 1.7580617318e-09 1.7538559666e-10 4.7716844238e-10 4.892936408e-09 4.7605927344e-09 4.9459535185e-09 4.7472779659e-10 1.7513335784e-10 
2.9915701829e-09 4.0952652136e-09 3.0960932394e-09 3.8112851791e-09 3.8370797195e-09 2.7230739152e-09 3.0692043665e-09 1.9927548128e-09 3.0838008734e-09 
4.0769110112e-09 3.0500693834e-09 2.0691328452e-09 2.1591384245e-09 2.4056656599e-09 9.8726770272e-10 9.8843836446e-10 3.6227379811e-09 3.4958013905e-09 
3.929997342e-09 3.9908918711e-09 2.0247590815e-09 4.0769370737e-09 3.709790056e-09 3.9712627427e-09 3.6211627063e-09 3.7334833808e-09 4.101773681e-09 
3.6457705846e-09 4.2371940004e-09 4.5038369252e-09 3.7270952674e-09 4.863296342e-09 1.8486427959e-09 1.8431087911e-09 8.9322347399e-10 8.8742182087e-10 
6.5190744049e-10 7.6350411933e-10 7.5569852109e-10 9.8898428143e-10 3.7170312946e-09 4.8497034544e-09 4.488060398e-09 4.0134318167e-09 3.1278120174e-09 
7.0798331297e-10 7.0542804202e-10 2.0906297935e-09 2.1591719097e-09 2.3165738975e-09 2.162475413e-09 2.2908584978e-09 2.7485486522e-09 2.7674200988e-09 
1.2052638973e-10 1.8737387061e-10 1.2041270378e-10 4.2842888358e-09 4.335907157e-09 3.7677434073e-09 4.1355213219e-09 4.1994324103e-09 4.8216675291e-10 
5.7881687945e-10 3.7882774091e-10 5.7468368504e-10 4.2435120076e-09 5.3192660412e-05 5.3063517338e-05 5.348226783e-05 2.877005437e-09 2.8520398502e-09 
2.4038488733e-09 2.781778581e-09 3.1872207347e-09 3.477552113e-09 1.1196804941e-09 1.1256735631e-09 1.4205623715e-09 3.6731346983e-09 3.6181651745e-09 
2.8935875473e-09 2.8654503419e-09 3.0795627407e-09 2.4653290918e-09 2.4968057434e-09 2.885897325e-09 3.2511632408e-09 3.2218956342e-09 2.5851014748e-09 
4.1352221166e-09 4.0542884736e-09 3.736113642e-09 2.962785551e-10 2.9617534869e-10 3.6740807201e-10 2.0860351241e-10 2.0767323284e-10 5.7765613896e-09 
5.315420499e-09 5.5649019283e-09 5.0549856978e-09 5.1674924184e-09 7.1289744051e-10 1.2245953926e-09 1.6187607308e-09 1.5311588291e-09 1.2543652705e-09 
1.5608828318e-09 1.6543945693e-09 2.0102787131e-09 1.8731102204e-09 5.3719201392e-09 5.5304893807e-09 5.7480671717e-09 2.555723742e-10 7.0671107847e-11 
2.7038011323e-09 2.1425881293e-09 2.7327629054e-09 2.152714769e-09 2.9576445968e-09 5.3836246886e-05 5.3832654032e-05 5.3547280275e-05 2.5587423957e-10 
7.0783356449e-11 3.5806447285e-09 3.608870112e-09 3.829345367e-09 5.5319055713e-09 3.0734318176e-09 5.3539044369e-05 5.35424914e-05 5.3546461082e-05 
5.292386964e-05 5.3542912917e-05 2.4642235196e-09 2.3267160087e-09 5.3692793868e-05 5.3679116009e-05 5.3202154814e-05 5.3683170906e-05 5.3696931676e-05 
5.2224694971e-05 5.2910004929e-05 5.3537344435e-05 4.6917586088e-09 4.5960109276e-09 4.6417864182e-09 4.5656275279e-09 2.4950615855e-09 2.3369117258e-09 
4.5022679125e-09 4.0241366542e-09 5.671190254e-09 6.6764703714e-09 4.5744690238e-09 2.9506958682e-09 5.277088923e-05 5.2906603814e-05 2.2382429391e-09 
2.2842902625e-09 2.2529831372e-09 2.0098863797e-09 5.1843045265e-05 5.1097807215e-05 5.1102005662e-05 5.19156936e-05 5.1847238931e-05 5.2215019961e-05 
1.7490703326e-10 1.1429769596e-10 4.152553351e-05 4.0719565633e-05 4.1581827949e-05 4.0785110565e-05 4.0731923095e-05 5.3060331444e-05 4.3617950139e-09 
5.3533596177e-05 2.9758217213e-09 1.7489211377e-10 1.4584280437e-09 1.5581732104e-09 1.4673087427e-09 1.5676094573e-09 5.1527162676e-05 4.1793625901e-09 
4.0815316194e-09 4.6403203641e-05 4.5658132412e-05 4.5592702302e-05 4.5598667276e-05 4.6337750349e-05 4.5313988449e-09 4.5950790721e-09 4.2867651361e-09 
7.0255567731e-10 8.6423047594e-10 7.0263148544e-10 8.692115882e-10 5.1672449436e-05 5.1676000344e-05 5.1575582411e-05 5.2240659827e-05 5.2338587625e-05 
1.9117215725e-09 2.1468387558e-09 1.8656014312e-09 2.09763669e-09 5.255878884e-05 4.4715781982e-09 4.5015428682e-09 7.1938764806e-09 5.3944828267e-09 
4.7583613916e-09 4.8354165533e-09 4.5315036838e-09 4.7202360169e-09 4.2013427011e-05 4.321955516e-09 4.1600047876e-09 4.1289142675e-09 1.2678922565e-08 
7.3564223124e-08 2.0041813698e-07 2.956890917e-08 7.5103647831e-08 4.8694424316e-05 4.8666657509e-05 4.8684218728e-05 4.9470331722e-05 4.9480545446e-05 
4.947023369e-05 4.8684137489e-05 4.8695863921e-05 4.8666565368e-05 4.9481959649e-05 4.5679371738e-05 4.6424465109e-05 4.6336229034e-05 4.5620001714e-05 
4.5591153655e-05 3.7472960094e-06 3.1369479777e-06 3.4213869187e-06 5.2334999466e-05 5.5478284931e-09 4.4133884384e-09 5.8256977355e-09 4.0696769847e-05 
4.1285717396e-05 4.078390166e-05 4.1304578793e-05 4.0709624781e-05 5.2487428079e-05 5.2491640159e-05 4.7898131547e-05 4.7908328787e-05 3.1274377302e-06 
2.5609765596e-06 2.8289265941e-06 3.1506581543e-06 3.7590848193e-06 4.7898067563e-05 4.7909794742e-05 5.1547327148e-05 4.6378367233e-05 4.7114127438e-05 
5.0620361522e-09 3.9974931266e-05 4.0010721769e-05 3.9266194317e-05 3.9953498581e-05 3.8473289781e-05 3.7688072566e-05 3.8480875357e-05 3.8450629698e-05 
3.7215510593e-09 8.7677697926e-09 2.0981305295e-08 1.0632707327e-08 1.8903072642e-05 1.9682255137e-05 2.0464965618e-05 1.9636434056e-05 1.9685263047e-05 
2.2022579255e-05 2.280350198e-05 2.3587938157e-05 2.2764147692e-05 2.2806629043e-05 3.0629364093e-05 3.1413259745e-05 2.9848970623e-05 3.0632682503e-05 
3.0600454202e-05 2.7495883573e-05 2.8278913774e-05 2.7499138413e-05 2.7463499783e-05 2.6716339087e-05 2.4366408785e-05 2.5148348007e-05 2.4369583669e-05 
2.4329672326e-05 2.5930584917e-05 2.5933802603e-05 2.5896154584e-05 2.1242043839e-05 2.1245115205e-05 2.119969095e-05 2.9062179033e-05 2.9031624596e-05 
2.9065467779e-05 5.1372821384e-06 4.4287716046e-06 4.4284014395e-06 4.2194704417e-06 1.7349239224e-05 1.657176348e-05 1.6568913017e-05 1.579218499e-05 
1.6514220449e-05 1.1925321411e-05 1.1155644052e-05 1.2694291915e-05 1.1922914751e-05 1.1846311646e-05 1.8124419725e-05 1.8074540381e-05 1.8127353266e-05 
3.2197342787e-05 3.2200688739e-05 3.2984961494e-05 3.2169920182e-05 5.8638917472e-06 6.6012560691e-06 5.8633132101e-06 5.7055964397e-06 8.1026003551e-06 
7.3490940788e-06 7.3477460573e-06 7.2226026233e-06 1.0388078742e-05 9.620814641e-06 1.0297682718e-05 1.03857412e-05 1.5019015595e-05 1.424384347e-05 
1.5016260664e-05 1.4955737428e-05 3.8475598888e-05 3.8452931636e-05 3.9264390885e-05 3.8479031308e-05 3.7690355745e-05 5.0832387322e-05 5.0145471451e-05 
5.0844888277e-05 3.6905227762e-05 3.6908640911e-05 3.6881520169e-05 3.6123626117e-05 8.8607076738e-06 8.8588530426e-06 8.7553853915e-06 3.4550615625e-05 
3.3766030619e-05 3.3739959085e-05 3.3769400791e-05 4.4458456514e-06 5.1520383142e-06 4.4385066986e-06 4.2291180182e-06 5.8767664465e-06 6.6077286662e-06 
5.713006069e-06 5.870627244e-06 3.3767160798e-05 3.4551716071e-05 3.3741113998e-05 3.3771527151e-05 3.2987142614e-05 1.3469693713e-05 1.3399441007e-05 
1.3467087225e-05 2.2805260888e-05 2.2024406769e-05 2.2809859727e-05 2.2765918996e-05 2.3591056327e-05 8.869247239e-06 8.1119544469e-06 8.7601697031e-06 
8.8636470306e-06 9.6252074914e-06 2.5932110435e-05 2.5149926475e-05 2.5936623533e-05 2.5897696937e-05 2.6719072438e-05 2.4368043573e-05 2.4331321837e-05 
2.4372596471e-05 1.7353537532e-05 1.6576270981e-05 1.6516707351e-05 1.5794802368e-05 1.657139961e-05 1.3475276043e-05 1.4249111798e-05 1.3470184303e-05 
1.3402532223e-05 1.2697588895e-05 1.1931650871e-05 1.1162416827e-05 1.1849824978e-05 1.192643637e-05 2.7497312161e-05 2.828029789e-05 2.7464947102e-05 
2.7501789124e-05 1.9684320808e-05 1.8905230676e-05 1.9689032078e-05 1.9638506663e-05 2.0468584835e-05 1.8126677984e-05 1.8076802405e-05 1.8131460167e-05 
2.1243944958e-05 2.1201601868e-05 2.1248595498e-05 2.9063521054e-05 2.9032987077e-05 2.985139916e-05 2.9067966415e-05 7.3594205922e-06 7.3535658098e-06 
7.2284325928e-06 3.1414487987e-05 3.2198536764e-05 3.2171137605e-05 3.2202927236e-05 1.5024004677e-05 1.4958494986e-05 1.5019021495e-05 3.0630628336e-05 
3.0601740461e-05 3.0635044492e-05 1.0395355979e-05 1.0389803989e-05 1.0301735632e-05 3.5335349184e-05 3.5310511263e-05 3.5338742195e-05 3.5336421185e-05 
3.5340766267e-05 3.5311609203e-05 3.6125602329e-05 3.6902971562e-05 3.691057127e-05 3.6879269145e-05 6.3078586971e-09 6.5827298217e-09 4.1580134215e-05 
4.2096262125e-05 4.2012151767e-05 3.9930764482e-05 4.0008955375e-05 3.9952110295e-05 4.2008007217e-09 4.937748086e-05 4.8617440888e-05 4.9390209188e-05 
4.7113084177e-05 4.6400089897e-05 4.863318082e-05 4.941272438e-05 3.9786469878e-09 4.7128124571e-05 4.7899083396e-05 8.9399018586e-09 2.4730269024e-09 
2.171459729e-09 5.2418197809e-05 4.5583060693e-05 5.2923514358e-05 3.0053401843e-06 3.4174155689e-06 1.411549359e-07 3.5348786803e-08 4.4216848856e-09 
1.1201917871e-08 2.1862200328e-08 6.9122019077e-08 1.9131484029e-07 7.2534963797e-08 4.7125744336e-05 4.7896474001e-05 4.7865844354e-05 5.0225595866e-05 
2.4859143935e-09 4.8633742554e-05 4.7869109016e-05 4.7098522906e-05 4.6381980214e-05 4.6381812018e-05 4.7107369322e-05 5.3822075767e-05 5.3818398238e-05 
4.9407297426e-05 5.0221425408e-05 5.1041325831e-05 5.171679412e-05 4.9415350425e-08 4.5593034393e-05 5.0208431699e-05 2.5457916194e-07 2.6962193415e-06 
2.4526291222e-06 1.538091261e-08 5.0858651498e-05 5.0142189683e-05 5.0167582676e-05 4.4565693928e-09 4.4568931226e-09 4.3825220653e-09 4.3401572175e-09 
4.1406604341e-10 5.4537036757e-10 4.5604951111e-05 8.2415631884e-09 7.1434275068e-09 8.9031769817e-09 2.6029611801e-09 1.0514918036e-08 5.3847850021e-05 
5.3851374334e-05 5.7863767056e-09 5.3271477574e-09 5.3543616882e-05 4.9745536067e-08 2.213253373e-07 1.8888620302e-07 4.5156697133e-05 4.2118848138e-05 
4.1327053542e-05 1.2663592797e-09 2.4737854345e-09 1.2794340631e-09 2.4938165828e-09 3.7683632375e-05 3.7656586934e-05 3.658153271e-09 3.7475841127e-09 
3.6808227281e-09 5.0930735756e-05 5.0927189591e-05 1.5767123459e-05 1.5715483295e-05 1.1113744122e-05 1.1044094695e-05 6.5360335651e-06 6.4153280848e-06 
5.701035557e-08 3.6107858567e-05 3.6087486796e-05 4.9041613474e-06 5.0592978338e-06 3.4516317205e-05 3.4541138947e-05 1.2667343466e-05 1.2601161338e-05 
2.5136491075e-05 2.510197967e-05 3.2969088383e-05 3.2946571397e-05 1.727858721e-05 1.7322893529e-05 1.8840988519e-05 1.8886152248e-05 2.8237822319e-05 
2.8268758939e-05 2.2008544644e-05 2.1969455681e-05 2.9831869355e-05 2.9806803785e-05 2.6697727481e-05 2.6669524906e-05 8.0512114858e-06 7.954278825e-06 
2.3567422767e-05 2.3535261732e-05 1.415831741e-05 1.4212691213e-05 2.0441974477e-05 2.0404659213e-05 9.584205974e-06 9.4975431656e-06 3.1376406432e-05 
3.140447259e-05 2.8266944563e-05 2.8236958071e-05 3.1402854943e-05 3.1375639187e-05 2.0440844147e-05 2.0403422939e-05 2.3566463735e-05 2.3534203814e-05 
2.5100994324e-05 2.5134431347e-05 2.1968314904e-05 2.2006170393e-05 1.8839640976e-05 1.8883360317e-05 2.9831145494e-05 2.9805990578e-05 2.6696899774e-05 
2.6668603648e-05 4.7104409913e-05 1.2663108339e-05 1.2599095964e-05 1.7321530526e-05 1.7277108395e-05 4.8986588978e-06 5.0541428378e-06 1.4210996724e-05 
1.4156491363e-05 9.5785707344e-06 9.4947764302e-06 8.0480888974e-06 7.9509473323e-06 3.2968448675e-05 3.2945845758e-05 3.765927277e-05 3.7682310717e-05 
6.5480623903e-06 6.4220349351e-06 3.4543316718e-05 3.451748678e-05 1.577206186e-05 1.571816729e-05 1.1118169133e-05 1.1047950961e-05 3.6109119028e-05 
3.6088600965e-05 3.6468264163e-06 3.4253856134e-06 1.3303851269e-09 1.1929586309e-09 1.0395029017e-09 1.3213567491e-09 1.3385252811e-09 1.0463917792e-09 
2.6176807134e-09 4.4609858563e-05 4.4194628928e-05 4.4986091005e-05 4.3412299067e-05 4.3537442199e-05 4.275422023e-05 4.2633085852e-05 3.6092919644e-07 
7.5295928182e-07 5.3391149947e-07 3.7931970633e-09 4.8776839721e-09 4.7455709504e-09 4.9619953016e-09 4.7770937737e-09 1.6967400612e-08 6.6246918139e-07 
1.8228798412e-09 3.633611397e-06 4.5155504804e-05 1.1103236994e-09 1.6834217044e-07 1.4660262667e-07 2.9549167385e-07 4.2748443053e-05 4.3063764287e-07 
1.1174571961e-09 1.0343393417e-06 1.3385351788e-06 1.2247100271e-06 2.4107583423e-06 2.1330331518e-06 2.4600968255e-06 3.9235696599e-05 3.9216407127e-05 
4.4889833232e-05 4.4902697098e-05 4.3537270986e-05 4.4187262024e-05 4.3017380613e-09 3.9211885605e-05 3.9230919184e-05 1.6988687369e-06 2.461777248e-07 
4.0704631503e-05 4.1488554513e-05 4.0704439641e-05 5.1748209741e-09 6.0735530131e-09 1.9992642927e-06 2.9029694063e-09 2.9265831548e-09 4.2084606457e-05 
5.3707533426e-05 5.3711737806e-05 4.6002621855e-09 2.8674158851e-08 3.9995841888e-05 4.1352170408e-10 4.7682309542e-09 4.4906012232e-09 3.0569949831e-05 
2.9787867973e-05 3.0582883081e-05 3.1358412576e-05 2.8999492483e-05 2.9013115428e-05 2.8217841508e-05 2.4291417767e-05 2.3511322792e-05 2.4307635455e-05 
2.5079522873e-05 2.2723297784e-05 2.1943825638e-05 2.2740615716e-05 2.7429556861e-05 2.6648377961e-05 2.7443947143e-05 2.5860184708e-05 2.5875434012e-05 
2.1155866515e-05 2.0377081235e-05 2.1174445698e-05 1.9589165764e-05 1.9609205569e-05 1.88111422e-05 1.255665516e-05 1.3330401812e-05 1.4118668192e-05 
1.3359686664e-05 1.7246064537e-05 1.8023237268e-05 1.8044989013e-05 8.6500995826e-06 9.4386486538e-06 8.6948332353e-06 7.8840601952e-06 3.2929431117e-05 
3.2140887166e-05 3.215319703e-05 3.5295980752e-05 3.4501248621e-05 3.5284034832e-05 3.6073066241e-05 1.1768303314e-05 1.180085823e-05 1.0996183898e-05 
1.5681697432e-05 1.6458117234e-05 1.6481518885e-05 1.1803148735e-05 1.0997708804e-05 1.2557471292e-05 1.5682756493e-05 1.7246647854e-05 1.6483137127e-05 
6.3359205485e-06 5.5441530996e-06 4.7924306589e-06 5.6169134745e-06 6.3332459582e-06 5.6120141014e-06 4.7902879568e-06 1.4893814269e-05 1.4919647233e-05 
7.0951413201e-06 7.8853828663e-06 7.1523580924e-06 7.1485284357e-06 1.4119389169e-05 1.4921442335e-05 1.0248101471e-05 1.0208025247e-05 9.4397448916e-06 
3.3712262746e-05 3.372381448e-05 3.4500787928e-05 1.0245456093e-05 3.3724564854e-05 3.2929716958e-05 2.9788188349e-05 3.1358714827e-05 3.0583291202e-05 
2.0377568625e-05 2.1944275297e-05 2.1175073268e-05 2.2741194141e-05 2.351173973e-05 2.5875931955e-05 2.5079911163e-05 2.6648740961e-05 2.7444411723e-05 
2.8218182017e-05 1.8811673578e-05 1.9609890126e-05 2.4308171045e-05 2.9013550258e-05 1.3360730633e-05 8.6964824474e-06 1.8045740404e-05 3.2153581057e-05 
3.6072627381e-05 3.529489635e-05 3.9991785483e-05 3.6856161682e-05 3.6866739267e-05 3.764489448e-05 3.7645139236e-05 3.6867418635e-05 2.0512517446e-06 
1.7501038533e-06 5.3432140334e-10 5.3255232928e-10 4.2107290407e-05 4.4255176406e-09 4.097749848e-06 1.8629188727e-06 1.2654360109e-06 1.5795690307e-06 
8.9831714175e-07 5.0212002908e-05 3.2967719118e-06 4.0306505617e-06 4.4975267768e-05 4.411042157e-05 4.4360876013e-05 4.3576950092e-05 4.2529393306e-09 
1.041846959e-10 3.9201429193e-05 3.9915625298e-05 5.7095542256e-10 3.9197686612e-05 3.8428601604e-05 3.8423594737e-05 3.294007963e-06 4.0942666146e-06 
4.3030421678e-09 5.8612004953e-09 3.8419500023e-05 4.3555637847e-05 4.2759630478e-05 4.3189191191e-05 2.7050200804e-06 2.4873492824e-06 4.4528200931e-05 
4.3575244233e-05 4.3740416341e-05 1.8373431037e-06 8.464602056e-09 6.5410817638e-09 1.5068193106e-08 3.8078049492e-09 1.1208876788e-06 6.625700299e-07 
6.0203617011e-07 1.1548364289e-06 1.2197941047e-06 5.3434491608e-09 4.2776339562e-05 2.2767440063e-09 1.8168846373e-09 9.6562572829e-07 4.7965725017e-07 
6.0412245433e-07 1.1538587469e-06 6.1960514878e-11 9.6946472172e-11 5.2171143343e-07 4.8938098067e-09 4.8197322231e-09 2.3032183466e-09 5.7367660513e-10 
8.0490312918e-09 4.2799634378e-05 4.3046102214e-05 4.5428452988e-09 4.243533387e-07 3.7572140231e-09 3.7782981231e-09 1.0290638094e-08 3.9714836149e-07 
4.2801280457e-05 1.7479517339e-06 1.7369758808e-06 5.9201570147e-09 6.3060047474e-09 6.2544415832e-11 6.6775697766e-09 6.2622868979e-11 6.334067151e-11 
2.0640561515e-06 3.8455953037e-11 6.8825985943e-09 6.644090531e-09 3.9700592294e-09 
Stress%20xx%20component 1 3803 double
-9606557.8873 -9557418.6412 -43326486.107 -43175347.248 -80909078.243 -81979759.872 -32440496.389 -29267773.117 -29322674.898 
-30101854.385 -12720497.39 29275239.325 -31929272.164 -972.23316662 100853441.93 -3394030.74 29073733.662 -31995648.314 
-62.7631027 103917495.93 -44077624.008 -238014351.88 -233488639.64 -49268148.941 31471468.667 31486969.411 239665773.64 
41017018.883 -102072.41309 101563.88909 -40946273.307 -40815751.202 235281910.34 40878989.793 -106235.03613 95929.937586 
-7917564.2926 -7784442.296 -7755291.9094 -43334005.795 -43265285.386 -43266131.096 -20486686.916 -31982057.018 -15370137.834 
-26132578.489 -38034086.757 -20249001.462 -32003367.833 -15231254.89 -26214195.988 -38035629.498 -66161626.878 -75815397.973 
-77123518.83 -15301765.616 -17944319.862 -18120648.7 -14171612.836 -18171930.698 -17426745.612 -6244893.2763 -16909894.117 
-17898335.559 -17696577.532 -14395013.263 -18186228.746 -17323401.785 -6605650.5495 -29097104.306 -39283908.838 -34339126.183 
-34796258.021 -27393782.407 -49432573.413 -39076343.497 -26561216.359 -47181204.388 -45781078.543 -32544544.614 -28465315.293 
-49662653.89 -39266682.153 -26601986.605 -46841188.334 -45675929.661 -32658140.813 -28506396.837 -33186898.446 -31697448.615 
-23542265.434 -35508408.504 -30206041.631 -28926865.263 -9230865.7539 8864821.9438 26745429.082 39427782.857 2563374.5429 
13047575.25 35480299.859 32466701.028 16251909.647 1575437.5036 -16422095.995 -31652188.525 22321534.597 9384847.4396 
-6591310.8797 -23145116.067 -34093750.77 -9870400.0732 -400545.29022 -126281.12677 -16055.487287 -20931056.572 -3918577.0402 
226136.9735 -92339.057802 7399.9353757 -72735.716165 775512.00616 -7405338.9933 -9561.8924675 154199.82152 -2670721.077 
-91637651.938 -34881561.507 3614009.7806 -5982366.4295 -8644792.3669 78105638.327 -108502010.47 -8920032.6723 -599515.06768 
-11431112.763 31863269.622 239202950.5 -39279065.252 -34088938.372 -22074043.661 -34332168.721 -32398368.283 -30421994.554 
-7236227.7289 18019204.203 30273483.818 30855324.434 3770363.7374 14929053.86 34568768.988 30115661.962 16323855.055 
1452145.4864 -15824463.757 -31585824.83 22304388.822 9588085.3402 -7055704.7647 -23133778.615 -33888548.05 -9868129.4604 
-363722.72458 -119031.18887 -6876.5378249 -20883701.232 -3960002.2566 268389.14748 -70650.139617 -2211.5217361 -36674.44076 
827979.52974 -7887952.158 -13732.010868 167698.23986 -2462902.2553 -91770750.508 -34983927.629 3616719.1506 -5965242.2367 
-8158475.6537 78118032.525 -108485217.35 -8958501.5794 -626536.38741 -11199999.527 32622782.12 239156706.5 95517239.351 
99626152.536 101816489.4 -18443789.002 -74477301.64 -114303279.28 -103110449.51 -51107163.05 -99856191.289 -113755412.46 
-81826935.207 -246413807.69 -249584708.38 -241367876.43 -246773168.76 -231088154.79 -157077425.88 -93923487.784 -233389431.87 
-244465103.05 -200092506.06 -129255636.43 -55513744.387 -242492879.53 -235239299.74 -159092943.16 -94056026.586 -240303782.97 
-255666659.28 -201420063.13 -130855385.34 -55265416.524 -71302674.925 -116355477.39 -108198505.06 -52435091.902 -99111184.839 
-113474938.73 -85485628.191 -16311760.707 31309643.728 75860067.37 136450223.92 105826391.8 18627990.637 103736585.7 
126896796.54 64873445.223 43430327.564 39224087.156 39065907.97 31448258.923 -31080849.288 -31854921.429 -31945396.14 
4440.2028019 -5008.7099529 29.186819388 74259174.901 146946535.65 101273995.97 18813447.178 111787924.72 134899764.09 
61821263.992 135909403.09 222033752.3 244324560.61 76950015.739 183722262.12 244014179.91 234552779.09 236497944.82 
245652676.06 239541296.79 242990751.62 243427925.17 250305169.35 253358458.68 259389274.24 259184665.72 252301477.35 
241589318.06 229402559.86 218077935.59 205846856.09 194526427.54 182295804.7 170975129.48 158744440.58 147423750.6 
135192905.96 123870866.77 111641409.33 100319447.38 88088113.566 76782156.618 64673208.569 53646478.881 229752317.3 
249648746.93 246005473.38 239337629.24 243723073.85 241038918.17 253151685.7 247312507.59 261288849.17 254768533.54 
247138723.99 235523841.03 223739574.52 211962130.75 200186656.23 188411129.39 176635467.56 164859784.52 153084099.78 
141308361.82 129532248.53 117756903.09 105980426.2 94200566.945 82434090.327 70698299.761 59075440.037 47533339.589 
29533527.355 20335204.989 12949198.361 7003531.3514 2866230.6665 331327.65186 34495598.256 24696095.244 16583791.001 
9683941.2754 4834377.9218 1425618.8995 -15384.981555 -750.54609781 12133.116734 -4007.7113834 -75808.712021 -26809.931269 
51665.845292 57221.901739 -30192090.347 -20517763.752 -12996582.599 -7000431.1278 -2886578.3998 -386258.663 -35364815.66 
-24999971.495 -16684503.234 -9699689.1216 -4835349.506 -1397294.0117 -14125.692534 -235635083.07 -248881660.19 -240693469.02 
-243089857.72 -243564631.99 -250099644.34 -253177716.62 -259288161.82 -259092099.06 -252304186.79 -241588954.18 -229400790.39 
-218076924.8 -205847687.98 -194525646.02 -182296610.21 -170974322.9 -158745217.44 -147422911.8 -135193935.86 -123872921.43 
-111642324.25 -100320569.51 -88087527.176 -76759908.246 -64486900.331 -52853621.865 -223104298.04 -256811094.33 -244594020.91 
-239936383.1 -243776972.43 -241023699.89 -252840043.49 -247308462.45 -261004287.75 -254758236.94 -247137639.19 -235524544.94 
-223738888.6 -211962085.97 -200186690.69 -188411138.2 -176635467.35 -164859772.35 -153084060.6 -141308393.46 -129533068.72 
-117756930.52 -105981385.13 -94206356.364 -82422589.289 -70608791.34 -58702226.495 -46787801.815 -40821366.946 -40919107.634 
-40787677.531 -238981468.77 -238487567.88 -243830105.45 -240933976.18 -246065362.74 -247585550.31 -254800897.84 -259076898.87 
-257279582.68 -253105591.39 -241205489.15 -229862882.44 -217624750.27 -206301723.9 -194072416.37 -182750054.22 -170520935.48 
-159198625.67 -146969511.57 -135647288.72 -123418511.96 -112096929.05 -99868467.388 -88542898.652 -76312658.62 -64887946.268 
-52480798.241 -224263523.77 -242835844.48 -247903468.45 -243644607.65 -240244039.87 -247650681.87 -243234886.03 -257965451.55 
-250902508.46 -257644711.43 -247217389.25 -235525076.04 -223743720.21 -211963268.23 -200187021.22 -188411230.43 -176635493.18 
-164859780.46 -153084065.57 -141308384.99 -129532993.82 -117757412.11 -105982152.67 -94206453.622 -82427338.569 -70618997.711 
-58639813.042 -46945340.85 138691693.21 227945342.82 244037320.46 75293561.678 191611224.56 246300827.94 233171056.63 
238689482.67 239908893.1 243030869.57 241148823.63 246256615.57 247788790.68 254616005.91 258908129.52 257296131.25 
253105674.47 241203551.36 229863968.43 217624011.18 206302486.38 194071598.65 182750852.78 170520138.64 159199447.76 
146968762.44 135648012.25 123417071.44 112095980.25 99864475.346 88538743.021 76357485.578 65100660.544 53070467.95 
220373872.34 243372445.83 241861911.96 243254181.22 240326882.5 247934873.26 243244896.75 257676167.79 250916349.63 
257645709.01 247215499.58 235524668.82 223744172.07 211963266.53 200186986.45 188411222.24 176635493.43 164859792.66 
153084107.27 141308400.61 129532436.67 117756812.35 105981097.86 94203788.565 82434802.772 70734004.465 58986759.686 
47860971.909 29710498.518 20309776.875 12934807.218 7020172.8067 2842151.6508 354649.9946 34550745.745 24528082.669 
16528641.08 9704242.7586 4833326.8152 1410248.8837 10294.05441 -3002.6581037 4185.0635075 -8119.6501819 -77022.30742 
-23131.0111 25416.062533 54960.929075 -29795044.13 -20526139.748 -12959866.077 -7030046.7545 -2885018.4089 -388796.64525 
-35342830.108 -24992560.469 -16627869.188 -9719736.4978 -4836636.307 -1420455.1909 -8027.4075904 248259758.31 253708055.94 
242247899.74 40939389.644 41012186.624 40809878.756 -181331.92854 -122511.69196 -129399.99128 190036.77877 119479.93811 
118577.25229 -36508275.879 -17729542.347 -26200733.685 -13636521.85 -13294007.336 -18938080.541 -13609245.73 -19033897.044 
-40422178.55 -40065950.33 -34475115.851 -40471147.891 -34540598.395 -23471477.809 -29223417.66 -21589547.244 -31545882.865 
-29319016.71 -23755383.876 -15485033.877 -14556200.295 -12344934.649 -17981447.177 -10592724.892 -10802319.889 -13943987.408 
-10893472.585 -14474896.753 239908.38437 12211823.719 -17018389.028 -305308.53379 -16315798.603 -15316815.931 -16352750.195 
-13520898.362 -16686271.972 -14892985.061 -15097164.317 -12364182.31 -16354602.03 -15284210.974 -14821209.834 -16526509.257 
-46248625.684 -47090422.834 -28113207.366 -29084500.046 -29206093.912 -33937481.052 -28686500.994 -45892599.757 -46226053.623 
-48271866.666 -45843100.156 -48037996.853 -26089888.982 -30673504.577 -25181090.373 -32831742.254 -31205162.425 -26428137.575 
-33387305.062 -25316903.852 -26215810.964 -31116418.747 -26410924.418 -43268499.002 -48102632.305 -48051241.357 -30073613.361 
-36764692.604 -41396829.032 -28252937.214 -28641190.039 -27466156.072 -31179311.943 -43442374.022 -48197134.169 -30108946.675 
-36789767.701 -27510651.748 -28251168.938 31565799.714 58586543.592 -22340835.337 22489119.271 -55016343.658 61453453.928 
-56184995.625 10032442.46 23386107.948 43358981.662 -51918290.976 -247129.40631 27105407.39 70933416.899 -52547287.102 
-35198179.981 13723612.886 72562502.953 37264665.111 -22675367.844 -30554431.444 -6210920.6919 -38712169.315 -784326.18829 
-56918665.655 -792722.90207 57794871.983 -277211.65872 63938815.195 -27307463.139 46507631.971 -20589288.274 -8850354.4214 
8835715.435 54384173.716 -33188394.258 62272510.03 42702838.282 -58841477.113 1770204.1644 -31460932.949 60125122.521 
-17356206 -29668695.748 -35429001.364 -38700191.903 -42079783.952 -30680107.566 -44825380.67 -43080369.697 -40928926.278 
-80257467.544 -43176064.459 -47366932.613 -50345388.235 -41949120.283 -45857593.485 -53019139.032 -3438672.6104 13290658.136 
-28859244.404 -18308879.692 -7192823.8076 38890254.228 31838212.346 51757129.552 47626073.803 54196840.66 -19137431.351 
-18305366.651 -4075594.6074 775922.93464 7773562.6939 -13212.599913 13217953.089 -56412289.348 217555205.75 76630169.381 
47914026.242 -4402815.3855 73038592.908 -20835699.136 -26347876.456 -17922568.859 -23746579.839 26813601.781 18788727.591 
41420207.586 13902156.117 3900245.169 32689026.803 -8894268.9797 -15927341.851 13429538.006 -3975283.9061 34075933.325 
45385631.917 31568060.314 52600920.772 61767431.415 64462825.716 66921050.274 -18955237.089 -26916301.363 -25740226.39 
-21830653.944 -40313265.449 -45462001.358 -48249094.657 -60405910.558 -45367805.37 -41523772.663 -56351627.031 -40481978.069 
2390444.0889 4810298.3712 18299621.913 -617866.54459 -657580.03509 2700866.816 -224372.71565 -160797.46009 -596503.26617 
-151442.37678 -46294451.61 -42048877.605 -38368548.844 -33832591.991 -42695413.998 -44065460.61 -155786.82927 -28137.831413 
-3256548.1559 178999.4886 28843501.316 -12389476.442 -29056798.275 -55798175.527 -54137224.975 -48254338.206 -5869968.1739 
-3357630.0507 -9350864.3152 -14616918.148 -26366785.182 3404084.8826 -367484.15129 -4696836.6531 -6153463.9482 4938086.2931 
69913965.542 26701426.343 34115823.415 87415207.073 72920899.65 80885712.061 22355889.45 39968603.127 5668679.2386 
15867148.148 37788357.036 21791175.649 26759498.103 50367027.171 44676647.152 15451621.603 1768838.6648 52159002.174 
59939163.06 57984544.221 49159033.383 50865993.575 56735220.642 57317041.234 53758148.55 50804256.619 63693050.502 
46431218.549 62974816.968 49590693.258 -10546622.467 -15716340.073 -9483123.5482 -39724648.521 -40284836.38 -24207177.22 
-27977195.849 -14814597.468 28552355.131 7518884.7079 42212845.358 25568238.911 47292351.468 11401030.204 -57632896.091 
-58399592.91 -46876708.077 -53218328.721 -38188876.455 -57732427.964 65967363.481 61712561.43 55600286.377 -37188290.797 
31962089.201 59924219.78 -22491223.529 22618430.605 -55220637.407 61593997.485 -56371086.836 9018072.4972 23210339.612 
46655370.695 -52070244.186 -279701.45393 27460971.11 71523750.407 -52982486.803 -35012448.442 13473140.038 72646792.434 
37149635.22 -22785022.945 -31006644.84 -6178945.4629 -38766219.73 -832362.15366 -56275341.975 -547030.71183 55661536.902 
-357204.34993 64408437.836 -27305246.554 46195722.19 -20414739.753 -8782739.6851 9817673.6188 55606010.563 -33311495.106 
58219636.624 40907446.518 -60247389.347 1261568.7646 -32039220.179 59853585.379 -17990094.815 -35481299.403 -29670857.071 
-42039012.662 -38643687.276 -30698138.09 -42868103.754 -44825111.562 -80807425.226 -41283636.738 -43342173.443 -46530843.293 
-42091654.994 -50482259.408 -44080441.619 -53101071.813 -14203335.877 -29286817.511 15236443.343 -1347365.8701 -9301590.814 
31401974.888 38709499.163 46655034.536 48689368.625 54114513.511 -18397257.246 -18949725.53 817994.63863 -4050640.4683 
7601597.5312 -33215.056578 77183284.778 217708485.69 -54801749.031 12164423.493 -4008845.0141 49626995.148 71521073.351 
-26264076.435 -20268534.593 -18227613.921 -23678635.697 -18863632.287 -25642495.326 -26302520.414 -21762872.422 -41055326.897 
-42104791.343 -46795982.771 -33931921.949 -38516372.292 -42338757.342 -44117254.948 -48725668.333 -51985886.151 -59941734.868 
-40308612.398 -48540047.867 -56090727.66 -41049446.311 18866999.036 27147965.664 41583944.225 4285523.2288 13651947.994 
32784035.674 -16220786.293 -8158648.0047 13803735.296 -4320125.8838 4966620.9248 2318313.1378 18335328.163 -639409.8006 
-589623.96984 2858636.1858 -163128.27665 -235067.85054 -564318.00928 -209221.34476 46363143.51 37947165.514 29373492.246 
54813644.249 57433267.803 63680038.364 69515238.69 -29152985.496 -12450017.139 -54309869.283 -55985680.464 -48539682.394 
-3334319.9448 -5865919.1734 -14630199.346 -9401867.429 -26463789.305 244492.66714 3562696.4043 -6058770.6502 -4718400.0119 
4513783.4007 27197878.026 68652163.659 35030322.276 72939832.3 88840084.69 77224204.268 -122001.10604 -3256300.2651 
-79502.65349 -545854.77994 28509480.65 41783316.121 22524196.047 16600993.797 4083252.418 27798773.979 20810782.858 
37219014.702 44698543.25 51692173.277 15468075.432 1966789.9292 51496642.798 58337860.301 51172047.284 49688632.21 
58418226.352 58437720.276 58134906.292 54362267.904 62060238.5 50273252.627 49128608.241 63152299.468 46718868.699 
-15678207.552 -10501597.305 -9895754.3862 -24305781.269 -40584016.574 -40059147.245 -28304718.287 -15584509.196 7725029.9633 
28481060.881 42527370.753 47205252.307 25924128.097 11118508.467 -58430546.259 -57827354.893 -47031222.438 -38341966.317 
-53369294.36 -58181145.341 63945596.713 61938340.397 55356589.138 -37501484.959 196779163.09 -80358395.604 21646146.323 
-12758166.259 2291444.6994 -1317851.4936 -146489428.9 -144016895.52 -52968816.229 -143957525.5 -53019362.839 128859662.53 
297169034.59 343351822.02 297181005.72 129270501.47 2972711.8284 -10335357.289 -28050053.34 -1197208.2256 2658801.0257 
3140116.1468 -9717418.1526 -11004879.731 -3291993.5688 -152964.17446 44976973.864 -2603849.9763 121537703.75 -10347663.421 
2986267.829 2671103.0676 -1241105.9248 -11515866.628 -10074778.436 44297281.741 -494743.12589 -35877866.365 -46212232.869 
-23321105.915 -48148531.134 -53908643.662 -45138718.287 -47779969.383 -112024047.58 -65630889.269 -245013649.27 -229037836.16 
-188690450.96 -52291172.199 -45893484.93 -75789781.646 -46097946.592 -75657407.642 -251004789.66 -247954937.54 -251806210.34 
-241728508.41 -242585117.83 -242650760.31 -221026660.64 -258601393.3 -213650672.19 -172719077.28 -235146170.39 -134368911.59 
-98322539.259 -154993808.51 -89263744.84 -227066970.47 -229920118.53 -172696946.39 -211712556.37 -98609116.825 -135928034.34 
-41832713.027 -46511615.588 -25754040.657 -45616346.17 -44179972.921 -48152736.558 -53949434.339 11001251.924 29704384.48 
35397454.461 54002061.65 50314172.857 34128732.298 52191834.348 -20654332.064 -24856761.369 -32719659.118 20379949.148 
18473662.214 -992767.51246 -12473543.147 -8976835.4937 8538054.7143 3818009.7971 11645432.003 -33706501.667 22560735.73 
25055701.767 17579950.589 -32739347.98 -34039057.545 -32416643.045 26710269.171 23600205.904 17816827.947 -32099572.248 
-33844022.505 -32327733.432 27618150.207 29559745.98 12275840.77 5358937.9759 13675658.873 -14673327.704 -4718624.659 
89166.984075 -6426073.3769 4500775.8868 -19772810.993 -28143436.52 -18159635.203 -29512967.751 7417560.2195 13858678.554 
15854831.147 -12664860.239 -3387050.3442 2757747.8833 -1604771.7334 8147081.7015 -17632928.22 -25670314.139 -14835832.804 
-26133667.394 18722912.094 -33329660.41 -22253566.06 -28533684.726 -16477624.705 -10401427.855 14682745.005 10308955.037 
-4719281.953 1955770.018 6410612.558 5145.9003506 -18613257.832 53709.942144 485722.07436 -1534371.6783 -25137073.663 
-14220210.908 -25226545.164 -10423.698877 -2020.9484278 1546.9995209 -25118864.721 -14219864.97 2108.3472363 -11757.579175 
-1190844.1507 -5245714.4976 -8862142.8429 244187.4254 669642.72309 -227825.93825 74840.305632 44869.065047 129522.92785 
43498.452765 -5256721.5096 -1191479.6845 699560.77592 239980.57005 82986.56067 85102.8242 -2918379.9017 397599.37703 
-41609466.536 34210.74664 -17019.157704 1414.1298521 3801.1229939 -116305243.9 -22483083.66 -111850083.56 6733.8892468 
3157.7856954 -117151969.44 -23416324.232 592816.52089 145936.12164 164639.61696 -3425444.5009 1044330.6338 6242.3539984 
-15395915.103 219873.60949 579245.69725 1170214.6501 -3439665.4595 11033442.804 31403991.636 34034232.435 48459778.754 
30857873.327 56092221.085 59877656.839 -4214619.1189 63849.835995 6060.3337408 -921.01356655 49809927.445 -4773.5238694 
-2303.6448931 704230.87201 -38200.063104 193138.00153 -102318.62613 10.033115349 5.2095205966 -5.2266201272 -0.0082958041861 
1310.1418226 -525.17957667 7134.0993729 -289371181.3 -229633878.65 -12612423.638 29149992.975 125419659.7 99595122.125 
-163635427.76 79090800.936 70769135.961 62443395.597 54117605.352 45792073.498 6339836.9429 -87557679.496 236162639.82 
-37463114.423 20688700.702 -234911836.15 -127335768.21 -21180117.228 88992017.023 -6421387.3747 -80389317.892 -71930523.238 
-46543046.378 38083259.144 -101241909.3 -63468163.608 -55005754.747 165865829.41 -29628431.005 13301508.075 -2484005.5807 
2344410.6212 285787168.15 215887435.28 173664.12679 -345766.13 264061193.51 -277868171.18 6435360.4093 1201879.8212 
245058009.74 25471626.934 240244852.05 217234900.8 175216891.22 129235974.65 116330453.79 103405313.18 90479681.571 
77554005.792 64630218.086 38757630.681 14528919.296 6032071.0904 -144385809.36 -245636586.85 144392704.9 51702329.227 
-14482767.901 -5968415.83 -241537589.91 -217298518.25 -175229493.55 -129239621.2 -116330464.25 -103405314.74 -90479681.156 
-77554011.321 -64626235.087 -51703239.869 -38766373.383 -25612099.8 -1532446.9626 -164295793.24 -182717661.5 110722885.41 
207336798.61 312738.55033 -241205046.78 -224279.70809 -93713205.961 -125193022.12 -173000282.59 64643559.345 -32581574.794 
-145750438.43 -131743546.99 -238070649.82 -234152132.06 -242623278.33 -230172965.11 -233190888.55 -246425311.45 134389773.49 
236052491.29 236531928.91 236195866.25 230475765.86 264473569.06 33406602.426 39283909.007 21859565.648 27091601.964 
18637214.976 128714.22983 349728.39002 133011.37632 -67748.795855 -104095.54173 -246213.88208 -26653810.541 -21847405.809 
-39138811.371 -33543722.142 -18647785.283 -238412193.86 -243020572.55 -279927555.97 -164377547.76 -203111228.46 -207591666.18 
-183176561.72 -133476611.32 -149712439.12 -155470706.66 -144873784.67 206423674.99 163398457.59 153652338.12 129942522.92 
237563206.97 174688088.8 201819491.91 211669512.38 236308389.65 246467984.91 280323319.88 241051146.49 243610727.66 
248430160.35 242473462.43 243789658.24 245326956.36 241627398.26 239333119.14 246140889.62 233290062.54 237873344.39 
213966223.91 240872011.98 240915565.68 190444096.28 207931667.11 208405085.35 166246431.98 222710231.9 225664973.17 
148085402.05 184085992.83 187162784.25 131964755.47 198937975.28 203647930.28 121395877.21 165595239.01 170398811.04 
115848351.18 179585166.21 185150068.36 109404851.65 148958142.54 153871610.23 103828367.13 161354274.1 166938399.66 
98047796.394 133021291.94 137934462.77 93213557.323 143116109.23 148700315.62 87423663.511 117082786.77 121996071.54 
82587928.44 124877609.15 130461857.12 76797975.543 101144201.82 106057498.38 71962209.24 106639016.25 112223323.76 
66172233.444 85205191.512 90118940.844 61336578.345 88397028.301 93982693.609 55547367.421 69565376.357 74497109.29 
51036030.683 70165673.767 75749168.963 45208307.555 53339333.092 58241314.632 40085335.443 51966426.062 57508939.823 
34283460.328 37377590.477 42325808.073 29412506.557 23662959.012 17580079.68 21972408.145 14092813.784 10063565.801 
13227090.014 9835198.6837 6698157.3911 9441705.9166 6472850.872 2919367.1479 4723211.6887 3876800.6412 947442.60903 
2061166.5811 1896991.8363 766024.28418 51615.261444 120466.01934 225562.39634 -159963.03067 -88068.634946 -106760.5478 
-300137.41801 -22175595.477 -17683242.896 -13943108.09 -13375426.637 -10108425.715 -9936447.6674 -9483267.5286 -6666528.4171 
-6462758.6846 -4836964.1163 -2982919.8543 -3918163.3374 -2303728.9582 -1215062.5498 -2002942.7427 -485537.42607 -798127.22443 
-241027139.79 -240044922.31 -227541049.02 -229988786.96 -240527258.26 -247617684.93 -239461081.95 -242123413.14 -252245685.97 
-237326440.72 -232792770.33 -213230587.8 -241067193.28 -240857250.08 -189370461.5 -209231010.7 -208745132.97 -167303310.75 
-225614697.94 -222674923.04 -149086634.41 -187957657.33 -184865861.39 -132805630.23 -203626824.23 -198942520.82 -122181578.48 
-169672376.82 -164888990.34 -115117566.43 -185144040.88 -179580407.68 -108703036.67 -154528821.41 -149598527.49 -104498827.16 
-166939059.69 -161353568.16 -98677265.464 -138523956.86 -133593221.18 -93813964.421 -148701047.53 -143115392.61 -87984626.565 
-122517239.18 -117586387.61 -83120044.966 -130462574.14 -124876876.53 -77290627.073 -106510339.2 -101579478.72 -72426014.376 
-112224041.65 -106638385.5 -66596599.146 -90503365.483 -85572919.972 -61731852.054 -93987462.439 -88402982.487 -55901645.48 
-74179154.006 -69266020.708 -50712299.248 -75743399.425 -70156523.069 -44920522.766 -58485667.754 -53551394.836 -40340826.537 
-57498595.306 -51889025.76 -34514492.582 -42440607.523 -37413121.96 -29604119.462 -24168301.846 -129634192.56 -248603436.71 
11216282.428 113074870.17 243839077.83 234757100.16 40259910.746 -189370713.21 -952804.15742 15396.481744 911369.91868 
-637100.17229 602338.69496 210684.31919 -316655.42823 675765.30734 60305282.27 -954827.78224 -61281969.097 98083922.932 
-70402894.283 1357850.389 71586165.665 -98139422.105 40338327.13 -649672.16794 -40991502.207 64591450.507 -42966490.587 
719210.99231 43681971.605 -64616816.972 -156978916.88 38549613.027 240090017.18 -204223435.84 -246587563.35 172651256.83 
-488452.59609 -148674295.15 200013700.77 57185765.882 -58122416.536 82108091.116 50655121.616 -816660.94084 -51481714.846 
-82130931.781 48203338.787 -49009820.64 71487418.359 -44722059.49 45437758.247 -71464447.333 -76264621.748 78129972.245 
-129672880.16 107229494.89 -109574410.11 131607768.19 13747428.871 -14019568.498 -241876.18465 19357988.602 11145933.654 
-303320.17179 -11417162.146 -19412461.268 -5516246.8457 381126.60524 5890010.3751 -6969300.65 3807555.493 -101511.19517 
-3733362.724 7236571.2343 2645140.4356 -2651825.9258 2851062.2052 -2925260.2772 -1724655.7238 1518943.2379 38753053.891 
-39396681.234 58165469.186 36177966.63 -580689.09597 -36764128.35 -58165424.549 34591140.741 -35166359.797 51702661.371 
32015144.371 -512383.99964 -32532992.436 -51702654.99 30428250.308 -30935170.845 45239837.44 27852245.835 -444080.77202 
-28301796.362 -45239844.292 26265358.624 -26703958.98 38776983.894 23689414.159 -375020.19979 -24070520.104 -38777026.983 
22101871.496 -22473287.011 32326880.847 -19528305.953 19837533.596 308302.04579 -32301346.089 15362914.5 -15608540.006 
25838580.932 -17938613.07 18242157.991 -25862979.489 -7216249.662 7251712.9279 -12768743.067 9482151.021 -9977230.1771 
12945315.07 -153292168.05 275340861.3 -253819375.22 -255375264.08 -244530772.73 -239567974.79 -240612176.42 -240292493.5 
-250207897 -263258850.37 -262379830.19 -256787992.52 -247008723.25 -235529019.47 -223740695.41 -211962639.62 -200186852.94 
-188411186.71 -176635479.8 -164859776.41 -153084062.56 -141308373.79 -129533162.98 -117757747.8 -105982216.76 -94205496.532 
-82422630.292 -70641645.935 -59190651.95 -257206280.1 -237930406.65 -231492280.93 -46855955.991 -46885841.86 -238487486.59 
-52764255.377 -242533930.46 -242512663.07 -245053615.98 -240526013.61 -253282131.14 -250805706.66 -240551024.99 -238853150.28 
-244015973.1 -244032552.02 -242022393.11 -239966964.4 -242502422.07 -241254511.76 -241864283.37 -255884020.14 -252009105.32 
-245283217.54 -249265304.96 -247079308.85 -250505353.04 -261420785.24 -261840003.37 -256265841.93 -253727546.86 -255255220.14 
-258177776.89 -244070731.12 -249946623.7 -252229676.55 -232342196.12 -238711911.46 -241414683.52 -220584837.79 -226893421.61 
-229637290.47 -208780346.48 -215144384.52 -217850862.56 -197032863.26 -203340659.91 -206074625.95 -185229156.74 -191593159.86 
-194299033.71 -173481513.8 -179789430.86 -182523331.58 -161677756.88 -168041791.63 -170747628.85 -149930100.03 -156238029 
-158971921.27 -138126371.15 -144490375.67 -147196203.37 -126379682.84 -132686839.62 -135420647.29 -114572882.9 -120940159.07 
-123645691.98 -102825530.76 -109138219.62 -111866873.18 -91024359.46 -97389902.04 -100094498.69 -79266086.47 -85578428.476 
-88318343.917 -67413465.846 -73817337.951 -76523030.821 -55706441.05 -62245542.008 -64995712.135 -55923164.481 -236432985.92 
-240782927.1 -239964071.18 -239955440.38 -240456282.22 -240075339.37 -241522735.07 -246229091.56 -249261611.14 -243055613.2 
-244779654.68 -258004886.47 -262451267.1 -251250165.18 -252018568.66 -257720186.02 -255108034 -250057025.43 -244101351.32 
-238681590.97 -232372964.8 -226927883.25 -220557275.08 -215117244.15 -208808769.35 -203368989.15 -197004901.5 -191565192.45 
-185257234.64 -179817507.34 -173453467.27 -168013743.16 -161705813.79 -156266083.38 -149902036.61 -144462324.29 -138154441.85 
-132714845.84 -126351052.94 -120911486.52 -114604152.4 -109163125.42 -102799779.75 -97362862.514 -91047190.31 -85611461.952 
-79242516.404 -73788540.547 -67474373.552 -62118466.888 25281320.903 -114599.65131 -2200473.935 -70043.42494 12538.567035 
4583.7444287 -350.20368034 -317.4198381 176111.26295 4.7098970838 -0.58438976818 -9.4101927937 335.86110881 1293.3761858 
-8399.812025 -165714.16206 27520.299604 -6334280.8108 -702680.64951 -215461061.05 41631605.77 83246323.109 143116952.13 
92608021.437 6862052.8867 -33307236.135 74932430.974 66606322.761 58280508.748 49954714.616 190512972.03 -110099586.51 
27624574.492 -26744438.669 -6614289.6364 -192543698.31 -84617132.631 -76162143.527 -67699406.421 -59236963.649 -50774552.809 
111869747.87 -145163288.63 -94110812.796 -42309529.023 33850797.083 -2414251.9145 2441677.5638 207083978.93 282783426.39 
-278749757.36 211035.48866 300620223.19 -344708.3589 -306660791.56 13803054.663 9404053.0807 -13358717.735 -15237496.541 
8190302.2443 1203450.754 233942183.89 196792599.64 158147542.9 135810553.71 109868371.97 96942531.662 84016848.726 
71091330.154 58167962.307 45372703.72 6057709.3587 -249037567.37 -233844350.71 248859330.74 -196848242.74 -158138136.36 
-135810152.16 -122793469.44 -109868361.61 -96942531.201 -84016857.917 -71091080.887 -58163871.101 -45248807.167 122793210.49 
-6099787.6667 -1502008.365 13604543.064 31765921.154 -13195987.478 -31456248.793 -174367983.5 -259480880.14 244771439.37 
-246087254.35 266259169.21 -189370563.95 208812209.64 -23229552.86 297103.54231 22239256.944 -239577.65149 -94071162.707 
-243536412.64 -236567375.05 -249481713.57 -232145924.01 -254448097.96 -243685830.99 -232953317.55 -178423925.39 -122311416.48 
-31423569.958 70404594.266 -115223105.07 -130695417.64 -218362075.38 137775835.5 -31968400.107 -37352203.065 -21773512.337 
-26810766.515 -18104500.682 244436270.69 251399034.32 227512849.81 240763568.24 238202750.02 242860233.64 261230434.65 
36611696.797 31511938.173 27198376.146 121917.19687 129245.66831 382059.76587 -112348.55824 -80743.959417 -265334.77551 
-252830670.54 -240963453.39 -263098661.06 -209430230.88 -168764310.4 -220063837.53 -188325483.73 -135146265.51 -153493038.13 
-162219064.27 -160510728.84 172831776.92 201714015.09 103403605.58 149983156.88 222916399.38 180499472.85 206062728.74 
220208552.72 -238368657.12 -237953500.92 -233916583.71 -241461735.32 -239710817.88 -265917871.03 -240587772.34 -242727004.55 
-236137134.59 -243500599.91 -240501577 -215073352.62 -222230211.46 -223437075.47 -189058046.69 -234437708.29 -235789784.69 
-168440125.13 -195868026.63 -196227230.97 -146454855.46 -210612475.27 -215450516.29 -131819852.45 -174470548.57 -178578239.78 
-123277036.87 -188769732.03 -194207129.03 -115081286.45 -157601375.61 -162521016.68 -109853736.57 -170473585.75 -176062072.74 
-104026619.12 -141597166.16 -146528639.26 -99161634.232 -152234800.93 -157820656.01 -93331858.81 -125589876.9 -130520770.56 
-88467136.974 -133996159.08 -139581867.99 -82637668.944 -109582941.1 -114513804.79 -77773041.158 -115757615.49 -121343315.47 
-71943613.032 -93576077.66 -98506897.561 -67078993.076 -97519028.017 -103104717.22 -61249599.368 -77568439.264 -82499843.147 
-56384645.715 -79284124.319 -84869173.712 -50557255.538 -61297838.102 -66212390.984 -45398028.769 -61029646.831 -66616608.7 
-39612062.494 -46190254.573 -51209689.355 -35718693.291 -42779988.223 -48124434.852 -29484667.089 -23028086.533 -33731004.805 
-20030136.553 246945953.26 244057440.79 249995656.08 244720870.34 237808597.4 247372672.72 239217422.18 241190722.79 
260434000 241476974.19 240356690.16 237290041.8 240657159.51 243664661.53 214174227.65 222599863.98 221410028 
188114449.23 235799863.57 234363218.2 167375839.44 197009421.33 196637799.18 147366780.16 215404954.41 210611994.89 
132725012.56 177823788.79 173730893.86 122507139.67 194206884.49 188772717.23 114342830.86 161826967.94 156926791.04 
109156451.54 176061028.64 170474133.41 103362761.21 145905061.82 140991096.79 98527054.441 157819928.22 152235521.16 
92736728.09 129965443.79 125052116.22 87900864.886 139581146.35 133996882.55 82110859.987 114026799.14 109113503.05 
77275081.269 121342599.5 115758350.51 71485114.744 98088203.188 93174879.46 66649352.044 103104158.51 97519951.048 
60859371.837 82149852.034 77237249.779 56023957.861 84863068.936 79278437.983 50232232.603 66493916.002 61562726.718 
45693177.695 66684949.574 61109760.718 39931489.41 51707735.648 46720067.581 36251515.687 48394083.487 42950722.304 
29979131.075 22447423.124 32938372.984 18506278.109 134785.65543 59679.076145 214142.29921 -89482.144716 -129772.6929 
-50998.690751 -308830.94514 21144882.752 17096361.762 11897905.613 20087168.922 15078345.926 13571175.435 10262160.288 
9827815.1388 9539595.443 6757496.5031 6659704.6202 4797369.4299 2943182.5435 3925857.5539 2071975.66 970550.98216 
1873809.0874 750383.08445 -17053440.397 -21408650.339 -13565544.653 -10192322.381 -13511882.652 -9391293.5447 -6788863.0916 
-9515449.1143 -6572377.517 -2981821.4459 -4786251.0606 -3970467.474 -1190177.1849 -2328545.5627 -2051028.6228 -810428.79974 
-504137.15745 10330705.094 -136703408.84 -163575750.44 137938169.02 200557124.53 -211852736.04 -26903476.672 217678647.06 
1009004.2146 -104701.45807 -940495.70357 -734565.52245 482890.63375 -338461.17666 194307.49368 684712.20396 -94718890.602 
-1926221.9002 91986704.196 154880050.1 -155979179.6 6478441.3501 -163572003.87 163306570.4 -68207281.719 -1035363.2144 
67166243.288 110208741.19 -83199196.01 81691671.774 -110280349.88 -63987704.866 63013065.828 89464305.497 879752.32592 
55685027.341 -54802909.957 -89401019.921 -48149404.803 -758642.81818 47395216.253 76148738.272 53016447.59 -52145062.136 
-76167084.499 -43125920.547 -683581.81146 42439465.359 67804332.492 -46073920.599 45321924.752 -67804792.969 -41515377.938 
40837508.275 61397174.043 -38879799.303 -614872.40287 38259483.218 -61397080.537 32660.11466 -2859525.012 2958281.0126 
3116174.9147 -2973216.8491 1588726.8892 -1523193.693 -37282041.624 36672665.55 54934197.455 -34648624.532 -546540.82011 
34096621.171 -54934182.896 -33050782.769 32509709.449 48471264.94 -30417398.081 -478229.07183 29933701.154 -48471265.494 
-28819571.455 28346802.262 42008416.131 -26186198.313 -409905.97769 25770795.984 -42008437.189 -21954803.078 -340523.71297 
21608104.567 35545549.063 -24588348.802 24183924.798 -35545659.822 -20358965.128 20019241.132 29095863.819 274928.57223 
17724211.037 -17446449.931 -29069740.141 16127468.043 -15867106.082 -22689743.076 -14211200.082 432197.31798 14640717.51 
22749933.993 -12709252.732 12926709.456 15539380.643 -15791087.036 -8253255.6031 -879852.01044 7405360.0292 -3885870.8166 
4054840.3691 7071297.1718 -6729861.4656 -1823325.9275 -6067376.5061 4021256.9811 -244238830.57 247559284.64 244290032.32 
-253758477.76 -259765107.86 240970850.19 -7543821.3426 5773214.435 10926037.372 -7769707.785 4889972.0103 -12125879.632 
241634056.33 229063175.21 161412860.73 90311299.728 68606077.371 56615280.735 108675431.63 55824749.655 108360680.54 
254687505.24 252055776.96 254469024.32 244592093.8 239908298.87 144068945.37 192676218.86 123063314.33 230188913.73 
236016893.76 207547286.27 244986627.3 195544918.15 145553651.24 235816641.52 232555705.82 223741524.07 238581962.39 
244359224.18 239300978.2 240405509.69 250408986.15 257384567.16 263188730.3 256793566.62 247009778.27 235529348.25 
211962630.34 200186817.93 188411177.94 176635480.06 164859788.81 153084103.8 141308397.05 129532209.8 117756282.76 
105980294.07 94203095.428 82431443.466 70742116.545 59706516.188 262385474.37 234883419.96 47764498.101 236332868.04 
47721889.831 238549895.25 241617249.7 242122448.27 240972112.58 238728304.94 239629250.49 246933628.31 238642881.98 
241300336.33 240993730.02 241775992.12 243872769.06 240419863.14 241245520.5 242555084.8 241870784.19 252261640.33 
256122562.95 245299012.8 247085559.82 249270897.79 250505358.56 261939093.38 261499704.62 256261446.18 255266641.99 
253725988.66 258177072.86 249946410.22 244074335.07 252239481.93 238708679.44 232342509.21 241408619.82 226897123.85 
220583230.38 229638575.35 215146065.99 208778687.58 217851093.68 203342592.57 197030875 206074572.47 191594783.6 
185227518.35 194299017.78 179791394.4 173479551.24 182523325.74 168043433.24 161676139.42 170747635.66 156240023.9 
149928172.93 158971944.31 144492056.29 138124720.26 147196263.94 132688406.71 126375752.44 135420425.32 120939466.69 
114575352.82 123643986.45 109134066.55 102826594.74 111871569.28 97385730.437 91017189.135 100090906.05 85584781.187 
79284173.981 88309341.752 73866631.275 67561937.225 76571494.693 62450686.762 56321455.113 65182351.832 53542655.475 
56330987.484 242178937.1 240489963.3 243339989.67 240743780.61 240594912.14 241415076.6 240049572.2 249523751.17 
246481597.17 244768493.94 243101902.36 262240123.69 257784938.97 252026065.36 251233015.15 255111127.06 257732940.3 
244096696.93 250059735.6 232371401.21 238683374.04 220555865.23 226930068.83 208806763.9 215119230.64 197003235.69 
203370565.6 185255261.6 191567146.13 173451834.7 179819139.68 161703864.7 168015718.08 149900467.74 156267751.75 
138152454.87 144464338.88 126348702.21 132716204.43 114600175.85 120912455.06 102797380.11 109165361.83 91048634.522 
97357255.979 79266593.377 85603555.393 67649615.537 73848554.872 62402481.228 16497164.307 9625095.4947 4792930.0908 
1419740.7401 23935609.547 34228389.985 -45624.317895 34551607.802 -38949.322106 26697976.385 22029949.708 29671165.839 
26469812.433 18704422.627 14517608.967 20145039.772 11202882.553 8159463.1826 12908449.761 6045474.7913 3717680.4221 
7024296.3087 2039547.2496 919266.24245 2924894.5178 270503.8873 914518.53536 22120598.439 14462540.75 18625388.73 
8181963.0111 11208830.954 3658956.5861 6054102.2601 2026694.5708 -31134.557491 14995.477338 -15442.562395 8143.3120798 
-47093.772641 -23139.765143 -40545.229582 8193.6708445 58956.50265 80483.218339 -25670.590951 -52697.858449 60379.0371 
13943.408976 -5631.8792202 -27966.53599 -37658.961772 18507.384882 20206.713297 -68678.365012 30543.590854 -37432.843758 
-9902.2595279 19133.623745 13731.660952 -24262967.294 -16605025.399 -9634917.7171 -4829723.6471 -1525005.8262 31051.038022 
-35239178.892 -35287875.48 38879.278593 -30054456.687 -22290914.571 -27031235.135 -27004820.075 -14588196.449 -18839646.827 
-20343707.339 -8176398.5662 -11218137.989 -12947998.915 -3774241.2447 -6037120.9482 -7021946.67 -971328.46082 -1971921.8859 
-2825001.1969 -341325.15335 -1002756.9058 -22385355.536 -18812169.628 -14502123.902 -11234839.186 -8179854.3515 -6064721.555 
-3721975.3337 -1988375.9488 51744413.281 30854965.231 -7137838.7209 -9604295.9037 -62809095.203 28864149.328 -45223705.021 
-35363745.429 74631327.713 80362795.413 64326553.1 63803735.228 55149593.588 75143532.043 86405665.437 55561015.178 
65090218.025 60786968.128 54679211.449 55976000.21 56092668.717 44241827.422 71011243.393 60096753.467 59857528.841 
56339884.699 42940863.397 63442126.97 39762611.065 49399542.453 49845585.912 66806864.762 36710380.585 37048925.401 
19394459.865 49875618.461 46895534.746 32052146.079 14884091.209 8633080.3366 -5616974.6132 8989996.2742 56435639.053 
54060269.995 -13265059.303 -13230523.522 -21801999.606 -45820656.595 -45775638.802 -34858492.739 35973807.973 44169212.836 
-33375324.228 -33304243.604 -57099507.629 120318137.5 136707325.16 -1646873.3466 56041156.59 136285509.13 120068635.81 
-1826394.9666 20771792.535 26814013.276 60232354.542 53220572.343 57591611.39 57775544.805 34125702.53 72808023.646 
65279079.316 58274220.182 43059776.647 53060478.162 35666261.408 57776153.63 117079339.07 75076495.231 94703504.621 
130249546.97 82968652.645 10889599.455 10874638.642 77846942.143 73143353.267 142953866.91 97568294.363 98475058.712 
8869469.1816 78114824.377 -29584460.422 -26013935.922 -31985697.035 -21625492.61 -35521469.851 -21750865.309 -35424394.332 
-31932381.91 44938494.618 29106123.855 16423277.257 29712939.144 17274896.198 53589218.006 18332117.525 1203487.9082 
-5325606.3903 -5467769.3149 -2142620.4343 -1741662.8932 -7140895.5402 -94227.746293 -696797.01298 100634229.96 104747093.81 
-18582016.357 -19303056.552 -22392865.332 194625858.22 46628887.18 65190331.324 16735926.725 46782519.66 194932873.3 
16565995.043 5063752.5111 10932232.283 9565100.644 5509923.8467 -15681978.934 -15754924.762 -15908520.122 -42507640.188 
-48296933.881 -57150645.48 -42575262.382 -15953947.395 -48374449.373 35638341.906 82851655.619 -83107811.046 -82975847.506 
-116088255.33 -79480931.932 -77916951.794 -8462928.8874 -8485331.0737 -5347290.1161 46733690.22 -47344239.471 -43023136.017 
-41960990.515 -55579603.668 -47422014.586 -57900925.19 -53729013.136 -58016755.872 -42096360.716 -48294663.515 -60777026.063 
-48226177.199 -60973194.987 23605545.272 -4651687.1271 -8879287.8524 62526549.379 55919817.286 67897070.942 28292490.252 
118174525.65 58625897.241 28059316.693 84546618.822 35500633.661 29020411.791 -6997981.7713 24212386.476 29087141.9 
68026503.71 -43363788.121 -25416486.666 -38820927.807 53387305.254 45524529.468 53444743.559 -38606724.979 -25644663.41 
10510193.448 4371293.7504 884019.71659 -3474463.4343 6448476.4715 4029821.9709 17708843.624 -46112764.744 1168191.4813 
4302773.9129 17674498.508 -45333166.975 17598872.688 -17873875.14 -62529878.481 -62638963.417 -140844524.01 -119317326.83 
-162783692.65 -142222906.92 -46216286.186 -18388660.553 -5508996.1206 -12834341.172 348498.94415 -5481831.8088 -18364023.514 
229227.92381 527202.85309 -342525.49408 -803304.92522 -135824.70084 -59259314.002 -59138272.898 -44325578.546 -43956100.526 
-44675848.66 -49724609.349 -51681504.444 -42237741.668 -697835.55009 -110439.82666 -342822.7814 15392747.595 -10794802.111 
-45518222.693 -45419502.015 -44584964.271 -57359794.808 -47823607.792 -57583231.307 -48072855.04 -71892136.58 -70371331.13 
-20877228.816 -25155759.025 -20956826.647 -13054722.226 -6689118.3101 2213877.5557 -10669383.918 40481764.873 -40150751.448 
-40151993.91 -35561234.926 -40747825.512 6575848.3859 -341229.85439 -278267.29319 -220597.72826 -8281388.5277 -35493362.307 
-37818195.801 -50107650.405 -8414738.7888 -51700084.655 -45583669.963 -45714175.66 -36650982.147 -114643521.83 -85786488.911 
-73689525.508 -72939032.992 -32968935.883 -37718546.516 -17827634.293 -48220103.312 -126538198.76 -124856223.72 -85693721.094 
-19673890.902 -14284776.887 1832401.5157 -44760340.045 -43581267.827 -54842497.608 -28052378.436 -27966664.433 -62523.239084 
5961.0076253 64374.355459 473228.82505 43307.810661 -54589649.734 -3609595.0689 -9544833.892 -6411261.1531 -3633899.0871 
-6263278.0898 -9564036.4177 11541361.459 -5074352.7966 137030151.59 142000076.26 175461121.77 -28610223.113 -17442706.786 
-69232672.478 -60093811.196 -71976023.607 -59949545.266 -54539315.561 -104503.34383 -120285.11064 -154889.59992 -28648084.662 
-17330568.345 -157757373.25 -174830295.34 -178923455.59 170849035.74 -57731014.441 15249.062516 93211.055284 83216.736131 
208100.94161 5153.9247274 -61396288 -66841082.493 126409.00897 107300.12972 309146.9187 124047.27218 128385.0486 
216640.57784 -92767.180534 -93840.993909 35816714.374 28993714.714 31045891.625 -318293.23897 -60487505.127 -66640761.911 
-170265632.11 -32172947.727 6256998.5289 -94031796.5 -359238.96947 -99099706.873 -512431.95973 -378823.41409 -58889443.055 
-67383488.551 -59209879.526 10577297.642 1332725.0602 2698261.8116 2718035.1984 1151787.859 1301662.3907 -343901.98017 
-23321632.865 -20385759.298 28944927.429 45761721.931 41793937.988 40094227.389 26181988 223277.92864 -143653672.74 
-65564.580923 -99473196.739 -23555311.335 -34742849.032 -35012605.536 -34780872.035 -35050471.325 -36291.184442 -19137260.67 
-14193623.67 15610586.873 18991970.713 19302042.644 13996392.83 16099426.2 22672970.174 28978704.179 43824949.574 
-64927389.49 -23422080.807 -65186145.326 -23787178.668 -1610006.9045 -1600765.9133 -1454359.5737 -760934.48378 -936092.10944 
-15356243.776 -32016875.361 -15189558.716 -32060458.218 763208.41614 19319756.261 21611571.6 124332081.43 55188784.236 
27917308.067 33323863.978 49434030.299 37704269.326 38989312.356 43714722.968 33820464.613 33718232.917 210865985.78 
230379201.36 250741225.12 238226942.9 246288777.05 -7862118.3195 -5996590.4666 -7961317.9732 -5848711.2685 -5738528.4305 
5824192.4281 7979950.7038 7844767.6229 5994308.5901 5772106.7411 -19020949.968 -15519946.177 -16169043.453 -13767089.374 
-19476062.783 -237668594.49 -243149489.43 -242344395.75 -973787.77557 -173945928.11 -110828577.94 -187124678.13 -45529353.23 
-36350659.841 -40032886.473 -18220585.82 -26145187.369 823709.69994 835367.89607 -10718312.713 -10721495.502 245254362.85 
237101384.83 238060370.91 239768397.74 233836921.06 10743219.918 10671751.903 -695907.56151 9442529.4058 11492366.77 
-107389851.48 50486415.426 50094667.213 54737144.454 35346640.637 58944265.808 63892316.614 59659639.061 42059306.335 
-163096465.58 2485182.0488 11543772.556 -120268794.54 -173266348.09 -168321188.15 -164146445.64 -119562318.06 -169091887.16 
-155027635.89 -150082149.41 -145908246.35 -106636783.36 -150853666.35 -105257344.78 -100312088.09 -109431192.3 -104485851.14 
-74322615.775 -123495897.89 -118550461.91 -122724291.66 -87248269.132 -127669728.32 -141734445.65 -136789007.01 -140962820.92 
-100173935.27 -131843568.38 -132615163.2 -93711102.748 -159973117.07 -159201207.11 -113099626.84 -113605030.42 -80785445.612 
-114376624.86 -237932099.18 -235559704.18 -242484392.28 -242381774.99 -182382380.97 -187298286.94 -186571531.98 -191459520.4 
-132483548.32 -220128136.4 -224116568.93 -212778743.15 -217238060.48 -161255873.37 -178213857.4 -126019268.46 -177436644.71 
-95366711.251 -96137749.593 -91194310.808 -67859328.471 -243868264.11 -242355824.67 -239461991.92 -241134820.44 -239829269.03 
-239655680.33 -244079507.78 -221692048.09 -225390138.43 -233995750.04 -178201735.5 -233725763.3 -195970610.15 -201259601.76 
-196358878.56 -139549073.93 -58861685.787 -42006639.203 -54696775.61 -59646665.131 -63825646.839 -983091.57165 3563.1717395 
935681.21787 -68773659.623 -68004135.266 -48469478.293 -72952293.418 -241081737.3 -233221049.51 -199223401.45 -82075492.283 
-87020147.02 -61399437.958 -86253035.218 236467762.5 238847615.25 242555122.3 244107650.92 242951907.11 242290409.7 
240569500.34 240129326.91 87013025.721 82071818.784 61394406.774 86245927.16 91190904.804 -206886631.81 -148304063.92 
-207357858.46 150086824.27 155027626.74 150848973.8 106636785.52 145908240.62 241148278.79 239883923.17 199157033.73 
233272442.28 234032160.16 131848252.84 136789007.52 132610484.83 93711103.172 127669734.65 141729762.74 100173935.03 
140967499.77 182385311.14 187304880.25 132489564.72 191459993.46 186579291.55 206882033.06 201263304.74 207366052.96 
148304060.96 212764711.45 220142904.73 224145289.91 161278289.7 217230976.53 123491225.66 118550475.47 87248266.481 
122728985.83 168325804.64 173266570.99 169087345.8 119562316.74 164146429 178209315.24 126018387.52 177440696.4 
159968430.6 113099645.1 159205874.35 113609720.65 80785420.664 109431200.36 114371957.36 239490483.39 244221834.65 
221711669.47 100311812.4 95371023.701 67860189.1 96133703.637 195965248.1 139543873.09 196354261.13 105252722.45 
74322586.034 104490350.21 225458675.21 233691008.72 178152392.15 -77132569.152 -54933767.827 -77895049.155 77127798.574 
77898761.957 54934900.708 72955355.775 68847398.903 68014681.64 48539494.52 167513877.83 140189388.62 -41532442.985 
-20709903.32 -38656328.701 -35198860 -50033752.425 -50281571.473 -16954854.929 -1615212.9774 -24133.670711 1630502.3097 
-11603640.671 -9342626.493 2950762.3525 3881998.1449 -185006937.39 -11667948.51 -6586052.4184 -203918065.98 -10939131.118 
-374716.71005 661417.01745 6971133.0753 328795.80305 -233904225.12 -237752164.83 262736536.19 194284412.45 14143647.367 
-212099942.94 -231669033.9 -240819986.21 -249878215.5 -231396588.91 11729078.885 6640962.9356 2938481.7165 3670918.1065 
-11933909.128 -2943655.1028 -2818321.6381 -134080.81175 3767007.2851 -3835683.6919 -6421028.564 -86315.993046 -93051.56704 
-3866161.7795 3669400.3201 1911723.0773 526261.71876 195006096.15 107401.05283 -3702051.3942 219055746.4 -257704019.33 
-234415740.79 119997478.22 -2026317.873 -2406542.167 2336255.5316 15438611.013 16535089.816 -4965366.9554 -10706118.256 
-31370120.244 -44464607.938 -6479231.3668 192664586.85 185298022.78 112143519.16 -74206351.872 198014548 -22706.490465 
-18715.749809 -94869.042392 7815.1696161 -129597.6702 57137520.93 268224350.47 287777254.32 21492091.097 19949794.023 
17235649.805 -32865431.27 45297333.602 -35248444.043 44617000.708 55787670.793 37280922.906 95149.335866 1213848.8678 
117744.08638 -2949764.2014 -2960148.9595 -167248327.78 -111587306.23 -197451338.13 -135599500.95 -225922991.88 -189553742.96 
-197825040.69 -63754195.642 -42509686.251 217490847.34 236234633.75 -47809096.098 -71723355.181 185794506.95 125499520.28 
119539436.76 79692963.147 79692913.646 53135191.472 106232199.77 159383769.39 100943113.5 151416673.42 69067228.174 
103600850.51 135477971.79 90318744.238 95631539.792 63754355.674 111570148.98 74380095.757 215705523.95 168193479.82 
127508753.74 85005818.39 117667786.12 175424340.77 143447664.85 95631586.558 206740379.2 150571911.55 58441536.536 
87661926.508 -104044912.2 -69511304.971 -88038317.474 -58817230.808 -144062499.63 -96246434.617 -128055299.58 -85552361.776 
-80205346.89 -120051820.6 -90899434.199 -136058676.82 -101592201.44 -152065129.29 -96041480.469 -64164287.265 -112048370.45 
-74858322.153 6644869.2361 -186619287.49 -126318561.96 -160067362.38 -106928278.54 -218001656.6 -236387389.24 -176172794.2 
-118409467.92 -207517023.12 -151518690.42 -216501444.31 -169257017.09 -80034661.773 -53463645.801 -37454838.316 -56019025.156 
226685491.63 190607044.23 72030884.565 48129823.73 167965819.12 112304569.78 198271725.32 136463416.9 64028339.672 
42771423.389 236532999.41 241733771.67 -36850791.005 -37685001.057 -39446443.821 -36809626.8 -36864762.793 -39409869.927 
-73873576.448 20062582.233 11107106.946 12302212.013 -17622138.518 -7120527.8155 -12936386.989 -24559946.066 109006602.43 
272090675.13 259376170.11 2517795.0926 46766137.078 44991934.205 46718851.978 44938168.77 228785190.48 -199300770.31 
-4008014.598 -230803763.14 -21892794.478 -39331458.353 -183251412.87 -269269455.27 -226266471.53 -513606.22119 -274285656.27 
-39338770.715 255819367.15 211106291.59 42285988.941 -236955977 232331590.16 240539914.48 49201887.897 33194921.509 
-6034015.3726 -14139286.072 6858767.8739 -1401932.548 12122548.457 -32752222.198 -48703467.485 246235531.97 -276667478.42 
10240467.593 -90064.219793 -10721092.282 -4333.7532923 4097.9882829 -237752513.77 -67367118.114 -65572842.955 -7467214.318 
83453.081911 93578.498169 24350031.171 -191640165.61 24147629.398 -30811717.57 32693172.584 49117552.041 4.1039077712 
-25387262.23 -48658830.712 -23271131.355 4.9461110736 -52890141.419 -27502879.229 0.53058793878 -33849698.501 -65583775.909 
-31734082.698 6.1569866293 -35965276.086 -69814990.864 -6.4231495583 -29618483.673 -57121356.065 -1.3541434756 -61352566.205 
-4.7423597365 -38081096.446 -74046168.46 27.456905032 -78276745.129 -40194865.542 -50004456.48 884.23740123 -46956733.839 
-97014623.627 -42302490.823 1100.6335101 -82507084.014 3052.9802203 -59069595.995 -124985270.45 -65026369.241 -21151835.729 
-1047.4347145 -44427367.977 35966269.764 19044395.171 19.657714221 16923989.501 6070.8654209 -103444373.83 -53083950.998 
-43760520.678 3919.9506799 -86073850.58 103462508.86 53956537.974 49185941.042 44478297.609 41612120.303 86087083.067 
72647683.155 -8728.7870931 83776639.677 155938632.86 -71527364.746 -155861677.13 -84430375.248 -6322.3480476 -90699727.198 
32263.999728 63983055.499 137526678.7 -137539216.04 46205455.14 90684164.496 112636678.46 -7521.6498966 58141625.937 
-5136.8983977 -39878559.667 -18728813.067 -112652860.98 39865487.621 20818683.564 24977370.844 22896429.797 47873373.135 
37466228.672 35384581.804 72850606.18 68687748.912 33303160.969 60361954.25 31221698.164 29140252.075 56199059.551 
27058801.127 39544873.519 77012687.255 64524851.122 52036169.32 95458571.03 123022080.02 81174492.374 43710717.431 
-16655574.167 -35384933.887 -23884184.422 -74.56980627 -31472894.423 -14834952.257 14592477.228 31483184.014 234446087.79 
243958455.72 -79010737.028 -78931645.699 6650857.255 15188803.933 195622858.14 208002984.14 -235898268.71 -237975171.9 
-264388050.33 -3791561.7427 114583487.08 13308.300181 4202852.7875 -13163019.425 22256691.52 26901682.025 -16662076.197 
-19529965.428 13782929.436 -105241.44962 -47491042.05 -13374209.117 -24274.592162 28427351.267 -119422213.49 -201751454.03 
8009137.4933 182807954.68 -28191996.256 17600849.285 11657608.384 31556423.308 257230896.27 9919343.2018 -22029560.514 
-26476578.419 -26692931.531 -185505536.9 -219330255.29 -195690232.05 -227864757.7 -173926917.92 -243042102.93 -260069787.96 
-255384792.81 -242111764.84 -247186461.49 181214926.07 23691426.765 -55460022.782 -1632444.0815 242976556.74 245796944.71 
257280868.89 247328782.68 -16590049.903 -19268240.456 -251031165.99 39916939.448 40125631.758 -55731898.728 -48225247.312 
211080089.18 -33594154.878 -32106412.581 19556924.454 242877310.39 3758040.389 3795688.1097 226627071.78 -241927053.39 
33607033.96 -244856600.96 -238119348.55 -11622.230581 15596.745545 -16402455.113 21526.717296 -16267588.735 -16111055.403 
-244117554.56 -15053921.375 5795.8463256 -11043.210488 16853163.575 
Stress%20xy%20component 1 3803 double
8602403.1508 8718534.7907 7978370.5685 7875302.8304 -37974721.91 -38783911.626 -28276519.106 -29802905.837 -30105129.516 
-27783950.109 7927332.6127 -21207433.695 -17450169.55 566.90592321 48113441.464 8981125.6835 -20906778.253 -17491345.503 
1227.8349349 48872642.929 32587221.279 -8487503.3932 -4378840.0571 37420050.802 -24068331.833 -24168990.044 -8068039.2555 
-1262498.4565 122139.13803 105371.87672 -702644.51112 -628803.49201 -4763248.272 -1084513.503 124708.89033 102597.96362 
7913053.2614 7771291.1957 7763803.8335 7753980.4708 7698790.7723 7632239.1712 10891320.265 11088784.36 10096716.862 
10926715.998 9780505.1207 10864551.339 11054948.383 10147894.341 10853234.14 9732309.5197 -30781677.001 -36796775.751 
-37514924.72 16196387.046 20881206.423 28922100.472 13056206.067 18378185.164 23985450.755 39346717.447 16322432.888 
20806918.236 28834685.344 13175142.568 18405754.877 23823912.734 38712379.212 -28021386.662 -32619031.061 -30988101.184 
-31101772.547 -27921116.168 -3381740.0119 -14386913.015 -18279117.521 2536705.0853 -9297022.8133 -16521844.478 -23079857.172 
-3540991.6944 -14406043.042 -18297930.894 2600021.9926 -9389499.537 -16550139.12 -23046596.326 -40574092.019 -35486154.455 
-15498099.801 -33827435.904 -38944569.236 -24985085.019 -4579808.6951 10739355.582 -14766510.355 -32396164.073 10065624.018 
-5595315.8979 -24225561.346 -28155861.737 -7602306.8094 81574.984141 981505.80061 -6257225.7108 -13726806.292 -3368881.2495 
1246216.2982 -2400462.3695 -11715730.504 -10463632.277 -748347.85043 87631.088792 -31930.058609 -14360816.344 -6122907.1486 
176835.51655 20134.471916 -13072.962192 -44826.102997 -146025.47738 4359612.4475 -6630.0506695 -82300.643252 1180838.3745 
4558339.6652 -26814692.258 3685573.755 13045501.199 8718499.4555 -36523205.158 -65435396.337 -7319156.1161 7000541.2355 
15745673.3 -14223319.513 -3454281.4021 -41706848.241 -33743861.222 -12504267.462 -34513142.504 -38838109.364 -23976471.774 
-3410477.6981 12492062.751 -17861999.726 -32489520.368 12315787.585 -4406562.5931 -27324211.414 -25879586.353 -7661381.8713 
47136.046366 1000312.9387 -6375389.5757 -13700222.928 -3426483.0909 1092838.5963 -2443587.6754 -11840998.528 -10419295.585 
-746591.82772 98800.144772 -32588.662563 -14298507.184 -6093694.5987 187999.20139 18159.396457 -1237.5118408 -45229.416524 
-163573.79366 3840088.6257 -9365.9275991 -93204.065915 1186799.9041 4252115.3104 -26888393.198 3657105.3164 12990720.694 
9074772.1479 -36161472.409 -65571835.453 -7369765.0877 6977445.0781 15900994.41 -13759777.516 -3545627.5725 63062290.303 
66672828.126 67155437.998 13980451.697 -47716061.879 -38812750.941 -6135028.0749 -39919437.189 -46008517.998 -22540389.998 
13447020.643 -8264444.6592 -8612064.9933 -6618777.2997 -26446877.04 -68318738.84 -78236515.266 -60703364.35 -15732230.181 
-38041078.633 -79206515.888 -70961968.209 -44345149.794 -36832597.626 -66668214.669 -79769011.708 -60813846.782 -23802592.256 
-41630847.307 -77344517.967 -71914657.489 -44300065.036 -47120307.152 -38050171.408 -6617560.4488 -39737957.357 -45927641.655 
-22751788.197 13306206.609 17697851.602 -22783403.195 29010439.2 -16795657.247 -41455448.741 35277850.991 2424426.2562 
-29907786.274 -35406989.157 -28241027.734 -26685980.505 -26805689.677 -22648010.797 -16497331.528 -16817200.174 -16846703.187 
-3007.0196406 -420.86397848 -1160.0960243 28037613.36 -16220331.671 -39695406.661 36791343.908 7956796.0069 -33278414.31 
-33454518.258 -62919793.539 -73039172.94 -25901955.446 -43906639.742 -69907891.063 -49691844.94 -15306699.616 4249908.9019 
-4411088.8394 -4288293.2071 -198600.2229 313136.63543 1154280.3849 596025.96696 2053916.7003 179191.20072 -67746.136928 
-484962.26582 -489990.52094 -487383.88033 -487191.13745 -487247.1431 -487263.86286 -487266.41909 -487263.46476 -487261.71854 
-487267.17117 -487729.95929 -479737.59082 -479694.50757 -490860.58851 -483844.51454 -473273.1244 -217874.73676 -1915946.8407 
-464958.9607 -8245642.6346 -2070088.9277 413887.29809 216651.0643 904845.94562 616210.209 990800.93835 520851.84547 
-577933.54727 -550092.38329 -673458.93545 -547362.14426 -672206.71223 -547361.94171 -672254.17119 -547370.24603 -672251.79966 
-547370.26714 -672452.45942 -544431.36904 -662104.22699 -546040.54767 -671403.49514 -534777.1749 -638996.48209 -633317.12038 
-469693.09838 -397241.46276 -237410.4816 -247767.69963 -80838.900864 -495.4548525 -773796.15362 -533571.14086 -444667.86739 
-268974.94172 -226040.33896 -54125.413487 52319.155469 9575.0553862 -106785.92057 -5020.4951135 79234.976234 -60931.877223 
-70789.206865 57341.389544 -512705.44798 -411345.07541 -229659.54129 -245150.04194 -65340.424463 -64143.809571 -634279.08404 
-550477.08972 -436142.97483 -265002.90737 -207466.15417 -14861.080436 -12289.273234 2836599.2479 2030630.769 -8178152.7621 
-283990.98096 329027.58304 1120120.5171 584840.23336 2023871.3418 207219.00835 -77449.82155 -493160.16638 -481990.51384 
-480159.72032 -479965.63323 -480008.23804 -480015.58263 -480017.21474 -480021.16733 -480023.86592 -480022.14669 -479566.2101 
-487562.87293 -488056.10814 -480539.17838 -481645.58475 -505935.87005 -450582.67397 -4482276.4885 -3968461.7698 -7351146.6186 
-3650072.0336 423546.94854 166955.38216 880081.9239 600165.30723 992406.34093 525665.1513 -587710.69118 -550587.04778 
-663169.72858 -541701.12748 -662218.66827 -541685.23043 -662247.91009 -541691.70143 -662254.76666 -541694.95849 -662062.23026 
-544645.13257 -672589.33915 -544988.17775 -663328.71931 -553248.86869 -716077.03146 -579858.5226 -440547.92387 -575668.62381 
-519475.73987 4293573.9477 -6515426.5582 -2796990.5066 -277691.59392 474172.93103 861289.83892 1723983.2934 425886.77157 
1600015.0711 -314722.95295 -490464.05946 -485812.1535 -480177.5719 -479993.84682 -480020.76714 -480016.68383 -480015.37099 
-480014.02421 -480015.47123 -479954.98744 -479759.34861 -479574.43033 -487315.66973 -487831.87386 -459353.97721 -493130.55777 
-651338.53254 46960.884018 -1671112.1614 -5445427.6466 -2388404.6641 172372.60478 1060834.7738 343637.2555 731211.86118 
1219113.1581 228314.61508 -434298.84034 -666126.19807 -544103.39603 -662336.63562 -541682.71477 -662251.74805 -541689.04818 
-662246.30426 -541688.19159 -662219.61915 -541562.67497 -662014.56104 -544179.38147 -672362.08741 -536505.88494 -632673.71509 
-604660.12828 -487501.04533 -62709224.508 -72092614.705 -33037492.352 -43038324.6 -70324579.848 -50631907.758 -21615704.47 
3423006.784 -6807547.1104 -2258764.8574 -782498.46644 476113.20071 865443.20641 1701927.1008 415740.67116 1590189.7765 
-318218.24326 -497768.20187 -493606.51573 -487576.97356 -487263.82327 -487282.59997 -487273.69423 -487271.18055 -487270.94423 
-487268.75008 -487325.43021 -487505.31648 -487622.48795 -479802.59874 -481027.99594 -443525.16651 -432919.46072 -413649.60963 
1232506.4616 -5259641.3022 -5252011.1974 -2485552.6353 -29807.413058 1063134.1004 329021.61774 712170.77932 1205850.3621 
223435.10244 -439858.18117 -676279.90136 -550067.81987 -672425.92688 -547378.07728 -672270.02147 -547376.95278 -672261.07079 
-547374.20634 -672283.37354 -547489.97533 -672436.76015 -544822.74513 -662417.19493 -525339.43413 -596751.54082 -566553.64831 
-381991.19444 -269105.6945 -360419.94171 -212845.2487 -251156.07887 -86974.750264 -34666.041473 -188699.98717 -409857.44333 
-371112.27322 -267171.01645 -224688.34032 -61463.062272 34849.5763 9323.0556271 -107177.08203 -4723.3280003 81056.497064 
-59925.445929 -66708.011051 56181.285753 -480469.32903 -411653.21242 -234407.63944 -245112.27212 -71640.833371 -24959.814068 
-591638.60745 -481086.64522 -431111.27113 -275358.6209 -218591.35356 -14372.370709 6045.9835133 -7677621.9946 -7951606.4734 
-6291980.1378 -850190.5696 -1043058.041 -980082.46118 149057.4461 122103.21759 132823.62328 125263.31252 106998.40701 
103646.58336 10788499.387 9600195.982 11198759.337 8897281.5934 8803821.7122 10276984.743 8901520.8988 10195229.521 
9259429.5834 9551529.1773 10799865.621 9235367.0567 10818454.796 11018609.465 11128660.099 10569708.131 11313891.21 
11159769.156 11047621.434 22763871.764 18167941.405 13521327.538 30232959.659 10912091.275 10966964.509 14806791.041 
11094538.276 14962746.823 40772147.808 41516310.355 29276031.684 40154983.652 29267471.595 16717876.011 19165309.81 
15782498.659 22011028.68 25319218.933 20380630.625 26070406.429 19151109.047 16772879.578 25133985.743 21942827.536 
-8694936.7919 2398908.6103 -25089522.725 -16438479.533 -21050390.316 -14699605.92 -25769220.759 5168155.7727 5154591.119 
-643202.17475 5051477.8949 -420714.35168 -26798762.962 -26948199.604 -20898263.079 -28167331.482 -27418769.381 -27190763.127 
-28626159.891 -21136870.545 -22556760.222 -25821294.446 -22872233.93 -11587481.011 -6035047.1271 -3331766.0494 -15975983.933 
-14749642.869 -12813730.847 -19561374.367 -17735475.578 -16918799.455 -15359981.119 -11610552.312 -6178882.1311 -15988998.829 
-14751803.64 -16935914.542 -19591695.948 18325146.609 12113879.878 17590413.798 26528731.34 -21855575.064 674478.57632 
-19946233.629 28270720.825 -24884869.753 5203295.136 -12632069.431 18856103.259 19788218.067 4499948.2206 -5898825.802 
12237863.839 5696001.1287 32955675.255 4436288.4306 693900.75691 18214488.152 1456173.6754 -21960683.45 540821.27648 
-27858379.619 11956135.346 19727690.974 -177978.3175 60499403.346 15325833.488 -9495650.3465 15670786.21 16696472.314 
5324697.7072 8457340.1949 -20672733.938 -933312.91149 34186514.169 -25141025.315 23277897.266 -4903345.3295 -12304030.781 
13380345.247 13128776.191 11469554.252 9729525.0809 3924122.9367 14332920.838 -7493708.6926 9273023.8758 -15880031.919 
-41346654.666 -19231646.809 -29458397.034 -34518586.747 -21575335.883 -25742803.93 -24510260.36 19802034.846 24571453.518 
2114660.8692 15489361.001 25787113.012 -15499833.717 -9104584.2135 -22268091.811 -18011265.888 -11408230.243 -1823239.5517 
-8238842.543 -10182741.453 -8953610.8046 -2523274.8792 -17460.437711 20832940.248 31431282.429 77509701.908 11420359.704 
5647211.6271 -10466668.045 -4383265.5218 13120896.804 13329784.828 16146332.036 15671792.41 -1959482.18 2409400.9134 
-2606052.4439 9152795.7625 10495619.071 12392417.958 5889566.3193 2841587.1151 16656155.187 8334368.1481 15048941.993 
3315133.4458 24688924.341 -4108620.1555 -12958165.836 11542799.769 -4069188.8017 18146568.251 20708862.22 17675752.152 
18326013.202 3380704.8095 -32581805.56 -31037132.483 -26858187.728 -19433337.899 -8960793.5901 -16356259.214 5379342.0633 
-5022989.1698 226277.16834 -10353270.054 -261741.50307 -86981.991659 3429049.1977 -28074.337313 -116338.32611 -54929.098051 
-164354.22256 -6139377.5175 -13886165.106 -18337112.545 -19968068.521 -21188194.766 -20310910.844 -184637.5517 251725.37531 
2015365.1773 8217677.7506 17905520.944 -8348987.3815 -23078579.49 -23772708.07 -22329026.023 -12583896.451 14469890.517 
8976763.4834 1264519.3797 9330503.797 -10428921.791 5623319.5891 9010639.1673 16403763.297 19641585.006 12231570.748 
-14237377.514 -203174.8939 -1067069.5681 8340561.1086 44022759.86 14860712.129 22259359.428 19447666.511 25102814.281 
21077737.461 11394792.23 11669395.993 4360290.4468 6089009.9046 12094984.693 17677163.451 21720138.588 11846695.127 
6949696.2128 6220453.2776 9334208.5089 1855083.4507 6564067.2894 9712132.0533 7248119.6494 1979054.521 8027559.7423 
16188392.98 20519758.204 25527704.747 19475151.844 17931256.652 21245955.767 6128233.4571 -2648824.4281 9523027.3665 
18164064.042 22071216.223 5833003.0368 14207093.983 34538977.806 23806672.116 29383146.923 19062887.7 -21906908.766 
-24604741.965 -22205111.198 -13595941.763 -11108470.152 -23231463.586 2243480.6085 -6701257.693 -4114297.2329 -21848158.144 
17796294.935 12396371.022 17803801.51 26736193.453 -21923379.2 1235065.619 -19981390.176 29094261.539 -24843289.443 
3319019.2914 -13652967.838 19772566.549 19987528.431 5615875.8018 -6238477.815 12905754.409 5773308.9851 30105227.746 
4688762.9807 678755.89607 17714901.611 1604678.017 -22007039.765 557865.92791 -27580939.463 12249002.769 18230370.847 
-170302.95731 60329679.867 15343494.622 -9548402.1584 15664137.524 16709019.062 5505714.0517 8379977.5442 -20738890.768 
1338367.275 34085064.86 -25653002.414 24555101.768 -4940155.3176 -13392039.404 13764377.292 11419384.482 13084891.714 
4377422.7217 9688041.3691 14320361.63 9136959.1393 -7935054.4884 -41637138.937 -15970539.017 -18605083.376 -26096537.709 
-21636547.439 -35089738.159 -27995310.315 -24399478.65 13759314.62 3920946.6642 24440453.048 21908669.463 25180885.057 
-8991103.2482 -15252898.14 -18174450.239 -22365177.574 -11689077.591 -8219318.1596 -1768831.8139 -8954715.5876 -10196603.716 
-2565870.9997 -13286.586019 11409644.002 77151260.354 32220771.037 20331816.665 -10241823.4 6301924.6824 -4561809.7716 
13298981.587 13158522.028 16012059.448 15598785.411 18129296.575 17644102.246 20992091.245 18313918.478 3251554.378 
-13828957.897 -6881375.4215 -19973073.321 -18412023.221 -20863870.027 -20327079.059 -30056119.853 -34293296.019 -26976918.039 
-8796673.7172 -19066781.001 -16605944.883 5310058.0242 2479615.521 -1895492.5816 -2621106.9331 10262166.665 9024928.6353 
12411278.252 2738283.0387 6342827.5001 16744970.463 8225374.2633 206792.58275 -5021434.9027 -10454110.112 -63905.237035 
-239199.17894 3530289.1956 -129651.9088 -22449.640058 -42707.291357 -148788.6479 2106541.4679 16810997.328 25315326.417 
-12413441.224 -5692328.2048 10197125.871 -4088084.151 -23153017.787 -8396564.2848 -22387781.599 -23841921.312 -12608970.204 
8957131.3958 14444890.751 9342412.7411 1234589.4675 -10479197.89 8913622.3218 6031827.8798 19712340.179 16386748.726 
12143584.226 -50990.802944 -13295435.191 -749406.38813 43793138.673 7906352.0241 14276246.703 -189211.88919 2022723.9347 
222797.6804 8076597.1343 18054030.931 18661296.193 22784680.426 21140279.589 26121280.473 3814323.4909 12553686.737 
11259660.988 12279831.546 6397059.3103 17901135.515 22239255.929 11699037.341 6668012.5428 2113253.4912 9504245.2492 
6585404.9618 9627645.4399 6121112.4824 7581317.335 9100171.0896 2277612.0371 25515312.048 20023431.646 16170463.844 
18075118.128 19795833.104 21630087.805 9608126.7569 -2627506.0939 6216914.6188 18441006.702 22337836.568 14262699.248 
5932194.6087 34611534.01 29435845.784 23830257.679 19130515.148 -24713643.292 -21960150.509 -22267291.928 -11145317.319 
-13653607.299 -23286824.884 3246969.8518 -6553198.1092 -3877578.4281 -21876282.578 -36432684.196 -39476481.417 -11435897.273 
14129925.406 7786767.6436 -5902916.8419 -73525699.762 -81431349.79 -34335634.49 -81565813.01 -34380185.059 -51851535.272 
-26091524.615 20175157.531 -26230393.033 -51680439.505 644275.72308 -12909210.849 -25056553.022 9946290.0524 5430041.6396 
2739023.7919 14616511.082 16543699.975 12655286.13 2354974.3902 -25048873.82 7817745.7995 -31176097.503 -12938650.267 
634684.07398 5410349.1042 9919076.5039 16795973.909 14472875.847 -24779390.965 2513362.6299 -34989861.907 -43682509.978 
2015271.4344 -12913882.968 -35999090.785 -40466973.217 -23188217.617 -73603103.247 -51059088.826 -35097324.963 -71402272.416 
-76359542.4 -41286001.994 -40665146.831 -56828977.509 -40739188.433 -56723895.036 -28139541.864 -24864858.763 -33040344.142 
-21036939.755 -34450140.97 -52778495.91 -64616199.919 -49524198.03 -75280890.722 -78370290.01 -76885433.861 -77974098.767 
-67843908.344 -80048969.78 -63064357.741 -69868528.907 -53464779.546 -80821055.828 -76743948.777 -68153631.621 -78847748.418 
-36597383.568 -42465097.746 -1764446.7203 -9357478.6782 -41330460.626 -25085974.817 -33504543.064 15956039.813 17276776.306 
-29496858.485 -34917222.788 -14351922.083 -6290778.47 -27653727.158 -926198.68717 -3092633.5603 -9244239.0153 -12550861.058 
-10859766.741 -90600.151808 576808.25671 700897.97197 -3069507.6535 -834455.68914 -5360936.9403 -11118024.398 -15189242.514 
-16651286.253 -9359712.6355 -8837749.477 -14229962.254 -13659166.446 -18074642.416 -16241573.315 -9770907.3948 -7962615.4553 
-13367122.703 -12812483.029 -17515333.231 -18873644.557 -5204106.5669 -1498613.6495 -6870223.0156 585622.89852 667808.40497 
-208738.94059 585218.36362 -1315540.243 -1340580.6297 -5069648.0403 -1306688.246 -6896496.7329 -2312317.7917 -6438042.4471 
-8580480.8966 375194.75838 538759.35854 -350477.51456 612852.26441 -3150679.8789 -426080.57269 -4014930.559 -98405.152396 
-4640161.7175 -11249242.145 -9889421.258 -1734630.3023 -5745414.2648 -250795.23926 1153183.3839 -7984877.2776 -4344235.4215 
820421.67634 -176865.89105 -2062313.5463 8185.6748054 -14224078.8 98137.307123 76497.548657 -3353972.8335 -16259113.33 
-11883058.814 -16051031.952 3375.1217738 -11768.197433 652.80158093 -16240018.461 -11863882.023 4320.1332961 -3056.1065063 
-1809166.991 -7865945.4309 -9375960.0889 120179.69085 21098.67161 -623602.63073 160315.24005 28791.101472 190864.80261 
33255.169035 -7841274.4778 -1804740.1971 27127.607955 126989.11066 28652.317237 171535.0666 1240725.0388 -108731.63402 
2229113.4093 24498.488396 33112.685437 10025.054775 -353.01512848 -7561159.159 2588117.8762 3498551.5325 4026.5416339 
-11826.641466 -8738339.2001 1690121.0695 -81611.833609 2561.170407 8006.5640675 739406.98295 -4885.089112 -26432.887316 
2841905.5153 -48148.85559 -97307.74126 -49876.323002 492092.78545 17406521.544 15345620.453 -27329503.755 -35809625.036 
1372781.8843 -28024149.069 -17421533.704 74339111.407 -2335122.708 -14639998.303 -9671679.0798 -16935891.784 -12650361.61 
-10526967.939 -22913352.124 -9688985.5178 -7737633.9791 -4924855.1937 -9676884.34 -9677237.3702 -9677258.4255 -9677263.3286 
-9677316.3784 -9677527.822 -9685971.7742 -21994007.634 -10895550.237 -8210937.2711 -8766251.9791 -10465561.024 -9743951.0982 
-9877288.729 -8774042.5654 -8775586.0375 -8775669.2688 -8775672.3862 -8775746.174 -5718727.0589 -8776460.0808 -5971986.1134 
-8775463.1222 -8725948.1892 -3550338.6009 -10391279.215 -8803113.1777 -8732464.4985 -5668668.172 -8731057.3692 -8732528.2998 
-8732552.7183 -8733248.3618 -9673903.9044 -8732591.8613 -8732603.0997 -9452001.7526 -8740334.1159 -8315428.1409 -3208311.3773 
-3146170.1004 -9156181.4759 -6675178.6191 -1133199.7455 -1030375.6157 -14207576.205 -16028053.712 58677584.118 -1463817.9097 
2072153.3717 -6960887.6799 -2862984.8283 -3309202.5473 -4872296.4392 -6784192.058 -6788994.1341 -6789211.3961 -6789236.2142 
-6789258.5965 -6791084.8619 -6770138.2924 -5293334.9149 -3413407.6624 -6986154.5185 2782580.2427 -6988749.5938 -6791248.917 
-5418655.9749 -3419950.7195 -3894748.8679 -3381667.1155 -4872449.9559 -6785234.6335 -6793326.6819 -6793525.9905 -6793547.081 
-6793535.6241 -6791812.2035 -6792557.3601 -6819320.5332 -6906483.0981 -1710296.599 -44773522.784 -26899243.448 14315907.629 
-27866327.689 -443222.35929 509214.67502 -218779.64975 -55120779.952 13806646.333 -15721729.963 41071039.668 49438432.311 
27717630.635 43574125.166 -24491032.439 -8617842.8852 -3129603.2566 -4327993.8291 2257259.8512 -4991314.3684 -50721472.856 
-3022216.115 -9938428.7469 -776562.90114 -8042450.419 -5722197.4104 -4129457.7542 -3555261.4627 -4374430.6556 -5047160.9002 
-8034060.782 -128343.88609 -237684.10083 -230343.17617 -39117.144716 -126262.69187 -162573.57785 -4682749.3423 -4456610.2402 
-3655150.3956 -3699155.0396 -7619456.726 -37540223.331 -17402688.929 -6397071.0917 -58036128.239 -57814792.389 -48853424.311 
-37351120.669 -53235893.192 -57137211.605 -45450626.205 -22286617.684 -22073174.426 6799058.373 22325285.944 40770933.386 
-13926100.362 -40633083.139 -40730083.741 -46929602.138 -25621753.341 -14871421.045 -6283439.3483 -3276339.9757 241262.0995 
-7685688.1034 -7684779.9619 -10690085.099 -8079814.7071 696174.77162 -563625.55276 1800943.5913 -3363708.9897 -3543469.2703 
-5434068.3341 -979637.46459 -626641.7169 -5679428.6704 -4338222.3951 -4769170.5912 -7891873.337 -688172.93841 -2287326.308 
-7789645.3572 -4954006.7252 -4402074.1201 -7566904.2594 -3414775.1789 -3590164.6397 -8292031.0265 -4923428.0144 -4819533.8886 
-7810223.7205 -3623992.6047 -3614024.5478 -7766268.18 -5008053.7715 -5008647.0369 -7828412.6298 -3621751.4453 -3621831.234 
-7828402.7006 -5007903.5704 -5007863.0609 -7828524.3868 -3621887.8648 -3621872.8215 -7828627.7041 -5007959.4669 -5007956.3751 
-7828666.694 -3621896.8372 -3621898.3012 -7828675.6596 -5007958.7823 -5007958.0299 -7828675.8612 -3621922.7162 -3621907.2843 
-7828685.8246 -5008233.7717 -5008068.4738 -7828772.3063 -3620096.0856 -3623420.1227 -7829789.7827 -4976243.303 -4976517.7463 
-7805243.4583 -3624855.4436 -3620890.5286 -7805100.5364 -4997560.2324 -5005584.7691 -7825915.1036 -3602799.144 -3613852.1734 
-7814564.5478 -4904934.0876 -4967822.1902 -7795823.163 -7796930.5435 -2776621.4115 -2921635.7371 -6747769.5631 -3057955.3471 
-3299475.3284 -5521887.3974 -1766470.1224 -1859311.5222 -4569843.7136 -1613175.0452 -1850203.0182 -3271317.5772 -670142.941 
-810287.08355 -2285297.8641 -919874.18688 -624955.34187 -534011.27656 -794087.47688 -497293.54735 -594330.31483 -1153627.9139 
-613576.80854 -2949119.998 -2855573.9223 -6841384.9319 -3349865.122 -3088985.2602 -5615458.4103 -1877215.1231 -1772605.6435 
-4601795.3816 -1843984.1733 -1623345.3673 -3291227.161 -929530.8114 -781701.1745 -2443346.3964 -565967.32635 -1373612.3311 
-3715892.4826 -7725388.5468 -565798.19369 -6584671.3823 -6264360.3272 -6743437.3011 -1804498.6342 1010455.6849 7351685.7393 
-3819075.4206 -3538904.8043 -6171103.8117 -693948.03825 -1023274.5338 -5941439.4075 -4738949.9225 -4307654.717 -7869192.3843 
-2282682.017 -696742.40479 -7746282.968 -4368847.0911 -4900849.8967 -7528746.4647 -3576169.4007 -3419749.0124 -8253396.1251 
-4852495.2281 -4955970.1722 -7836617.5485 -3618397.2537 -3621604.948 -7791273.572 -4976709.2889 -4976332.4183 -7803862.0198 
-3622022.7769 -3621949.7955 -7805662.1993 -4976226.3125 -4976259.026 -7805844.0969 -3622060.5263 -3622068.3656 -7805942.1031 
-4976293.686 -4976296.0239 -7805969.3547 -3622076.7789 -3622079.784 -7805976.8742 -4976304.672 -4976305.101 -7805982.9022 
-3622073.5854 -3622062.0265 -7805976.8 -4976208.3029 -4976051.4943 -7805899.9129 -3620601.9835 -3623967.4895 -7804923.7632 
-5008038.276 -5008553.2226 -7829703.7238 -3624278.3453 -3621739.0703 -7830533.9606 -4982169.3607 -4982062.8888 -7809914.0216 
-3636526.1533 -3642151.9437 -7824506.921 -5014523.9434 -4998871.9068 -7831018.6086 -7968090.5597 40256487.539 29608151.972 
71311189.371 38591559.536 34579570.419 -6507365.3722 77149826.64 2028806.589 -2766829.5109 -3372766.3159 -2761426.4524 
-2117465.1785 -1960621.5522 -1717577.6733 -1641676.9008 -1299186.2047 -12720388.953 -13181102.966 -12690840.637 -12382039.529 
-13491762.557 -15473005.702 -13366926.34 -12429900.945 -9102656.9305 -9315226.2996 -9087264.7415 -8931841.6804 -9135212.8492 
-9436574.6578 -9118223.6749 -8932605.8197 -49804163.258 -36722624.936 -10529700.681 -32678340.903 -11247254.507 -8380654.7786 
-31875032.707 -13726246.964 -20304729.274 -11948267.26 -11914984.966 -10992026.312 -10985992.139 -10954255.218 -10950729.638 
-10998048.823 -10162317.741 -10138692.163 -9565159.6716 -9513884.9035 -9494991.9837 -9565084.2205 -16153038.755 -15933921.914 
-18241074.823 -19525400.295 -19531967.035 -17792391.603 -9109783.6133 -9102101.2014 -9316081.5023 -8913441.9577 -9104768.1006 
-9343943.4211 -9148717.9059 -8941780.7882 -7954946.4656 -8588404.1463 -7957251.9739 -6944476.1917 -6630283.6204 -5930154.0689 
-6558204.7679 -6870218.3161 -5305062.1166 -5237668.9323 -4439308.1955 -4390940.7444 -4016765.0488 -3970855.3771 -9108144.424 
-9090105.7129 -8939362.6478 -9109029.8007 -9318079.4483 -9090977.5038 -8936841.1582 -9109168.7626 -9091106.9306 -8939617.1033 
-9109198.169 -9318145.1335 -9091132.8295 -8937099.5667 -9109207.3409 -9091141.5279 -8939638.9557 -9109209.9835 -9318152.0928 
-9091144.5462 -8937119.2717 -9109210.0085 -9091148.8485 -8939663.2969 -9109242.8195 -9318165.6408 -9091125.5328 -8937104.7311 
-9107956.2354 -9092456.7662 -8938124.0545 -9108211.4773 -9092339.1997 -9318320.993 -8938732.1472 -9106794.9267 -9094513.8971 
-8937843.8842 -9107990.5412 -9091897.0845 -8938870.7337 -8957809.3768 -8983629.9114 -8730118.9049 -9142615.118 -9112384.5784 
-8844815.6468 5620926.3479 -10503104.057 -14518455.394 -9405189.4835 1202042.1555 1217356.8623 -1838039.1683 7184954.0291 
1985999.0731 2516934.0976 1835615.6644 790276.20355 -338601.91864 -417470.23389 -414032.49974 -413152.10104 -413168.89385 
-413169.91035 -413171.59602 -413172.497 -413175.65619 -413182.7663 -413215.94251 -413738.10191 -418384.8211 -418219.47121 
-412508.0618 -410289.42332 -478088.86453 2497786.41 -1907184.2609 -683645.711 -350500.16237 -442994.90345 3381905.5219 
-382296.78965 3513233.679 7836267.1203 8691034.343 -5336193.9307 5267462.8939 3785642.8032 -142584.20927 -1807558.2913 
-1264601.585 1432346.5875 798564.95067 1800.7506981 1642368.9694 192393.5251 1146817.9009 2044951.8655 1989645.6783 
1975108.0764 1698060.8882 774090.0723 2358785.1003 976408.1428 2055164.2746 2165522.0834 735357.9315 983336.16293 
1387503.4329 -389383.38931 -259240.20292 149120.69481 -425322.85445 -426512.15005 -325903.15234 -385973.33416 -386571.59154 
-336041.59785 -422951.40632 -423032.2048 -333458.73169 -385602.44205 -385588.72202 -333299.43982 -422944.39449 -422938.18785 
-333293.22339 -385605.93854 -385605.2126 -333302.78629 -422944.32564 -422942.44031 -333301.23474 -385610.3757 -385607.91724 
-333303.10517 -422936.2358 -422946.27006 -333306.00912 -385507.12413 -385576.9125 -333283.51925 -426313.47309 -422781.19089 
-333366.01344 -393967.27472 -393286.62917 -335335.80151 -423444.91575 -426664.69455 -337228.33434 -384419.31469 -387126.81065 
-335135.89152 -429502.22204 -426020.05236 -334597.29021 -375876.36693 -432424.11094 -316510.23437 -511543.16164 -1109365.9226 
-435759.16333 -2413034.4757 546861.009 1213654.1031 -7675.9630184 774723.70443 1429100.6192 1842636.4822 437561.85989 
1821767.8278 2231774.3092 2000294.1052 1119101.8861 1904822.7982 1263298.7587 93601.636924 -266645.95366 -400616.4419 
-390728.00895 -392115.8473 -425481.72858 -423188.22233 -385657.63235 -385544.59364 -422934.98781 -422931.54517 -385606.51166 
-385605.04763 -422943.0538 -422941.70065 -385605.76101 -385605.34226 -422944.8666 -422944.28688 -385607.95685 -385596.47048 
-422900.7324 -422841.36255 -385368.57036 -385911.88349 -423092.85742 -426514.84533 -393908.55368 -393177.68806 -426381.35664 
-413555.76479 -368555.44682 -383465.28854 -425229.93421 56884033.556 -2332567.5166 -31130493.528 -17015711.708 -13579110.163 
-11612149.426 -9785912.3902 -9677572.4776 -4895345.5739 -9677357.4443 -9677266.7049 -9677259.3533 -9677247.4186 -9677044.3872 
-9670915.045 -9646240.3883 -7442465.8319 -24498895.18 -9481738.4725 -4959371.6321 -8775380.394 -8773246.9257 -10216737.434 
-9182424.3633 -5465162.8724 -8775554.5516 -8776082.5843 -8775706.9747 -8775682.3141 -8775715.6666 -9280294.3206 -10254833.507 
-8485787.7229 -8642164.8432 -5660552.302 -8852926.0341 -8730310.511 -8732900.5693 -8732614.573 -8732594.9925 -8732550.447 
-10177286.207 -10044495.443 -9130221.925 -8732806.5431 -8731508.0158 -3132841.3254 -3163158.1735 2816349.1836 -10457231.578 
-9565877.7436 -1123942.4785 -5205710.848 -1067218.9682 -2817700.1619 -9082619.9881 -8212505.4091 -7593842.5238 -9062826.291 
56106008.736 -1470947.7338 -1932266.8362 -3679653.9782 -6657383.4657 -6774099.5798 -6789351.8604 -6789253.3407 -6789250.049 
-6789250.4346 -6792027.6622 -6781943.4026 -3457917.0661 540440.36078 -1698272.6473 4095328.2797 -3647804.2787 -6667931.16 
-6775344.0952 -6794407.3791 -6793620.8476 -6793545.8401 -6793535.1179 -6793503.515 -6790439.4032 -6804314.8196 -6790165.2419 
-3506828.9163 -1735188.6739 -5414717.5974 -6906923.9277 -5588291.1557 -7215561.5447 -42233425.858 -30361500.044 1380564.9018 
-263734.87581 -33452128.73 -21285812.156 -21190436.78 -6886927.3329 -447721.47796 -7391009.507 -221809.71619 -55088610.382 
-6583711.6471 -25950299.493 1365444.6173 -1483211.853 -6806313.4228 -2812129.4972 -7777115.3532 -15544007.405 16289936.638 
50072808.149 46693711.147 35687977.1 23005286.602 -12144025.566 -50167712.776 -3800336.9597 -3740352.0151 -4159593.9778 
-4293899.5409 -7353967.9784 -26165274.591 -6659433.6433 -2301090.047 28639.220796 -6632678.928 -3522796.6262 -9211834.9423 
-3891905.7968 -4536295.28 -3689635.549 -128223.29649 -228195.80628 -249006.98964 -127832.59756 -46309.41993 -150245.86783 
-17435174.554 -29716994.621 -16129036.819 -55528862.868 -59314466.231 -44298420.373 -32508174.488 -53311695.217 -58231850.719 
-45170898.223 -22013084.443 10524707.516 -18936551.213 40524816.655 26149802.029 -11726269.199 -43742452.164 -42134884.494 
-43453670.901 -13879605.206 -6745990.3021 -9436831.2176 -587779.01599 -4155005.7401 -2261204.863 -3130112.8407 -5136793.6928 
-6130203.2978 -637941.3217 -225027.63253 -3351979.2568 -3662952.7525 -4245291.3503 -6999431.6974 -656842.69743 -841050.96318 
-6709478.636 -4727899.8583 -4635602.2888 -7638203.0954 -2058116.0939 -3632986.7038 -8527291.1747 -4939879.0672 -4446585.9777 
-7825582.5784 -3618144.2584 -3483835.0178 -7870218.1232 -4977719.7872 -4972997.6562 -7802956.8638 -3622599.6207 -3624953.5089 
-7804588.5828 -4976469.8551 -4976668.2371 -7806521.5474 -3622104.4926 -3622116.9978 -7806167.6508 -4976304.3919 -4976311.3727 
-7806008.452 -3622074.8499 -3622076.6982 -7805984.6745 -4976294.2736 -4976295.7805 -7805976.8936 -3622066.5897 -3622069.6035 
-7805972.7251 -4976227.3011 -4976268.1262 -7805950.1088 -3621926.6897 -3621937.4758 -7805853.2213 -4976154.4064 -4976007.7608 
-7805849.2967 -3622931.5345 -3619771.4615 -7804819.3635 -5008549.7358 -5008418.7709 -7829631.3796 -3620176.8464 -3630344.9816 
-7836111.1714 -4882490.4615 -4881466.0637 -7743573.2291 -3958260.7523 -3854570.1335 -7893828.0966 -8292416.6046 -5253416.5045 
-8010531.4479 -24451933.308 -10729582.657 -14699162.213 -7611745.3889 -14583752.042 -5513587.7525 -3480815.8086 450674.38489 
2950924.4031 -4808687.6452 -3626813.7843 -6194505.7349 -662987.48428 -746602.39727 -3913757.8801 -4365790.7482 -3737598.662 
-7224371.8034 -875005.42939 -682780.50832 -6811589.6024 -4592938.8586 -4687769.2945 -7595504.3318 -3625230.5132 -2057935.2887 
-8482287.2263 -4484770.474 -4974736.3401 -7854885.8354 -3484845.5744 -3619955.2874 -7897146.0254 -5004742.4193 -5009854.4263 
-7826497.6374 -3625075.4345 -3622704.7567 -7827376.5998 -5008495.0509 -5008214.391 -7829469.7335 -3621978.3743 -3621952.4655 
-7828940.3327 -5007993.3891 -5007982.2071 -7828732.6854 -3621911.8788 -3621908.864 -7828699.0055 -5007969.8391 -5007969.5034 
-7828688.5034 -3621907.922 -3621909.7834 -7828687.4641 -5007990.2556 -5008026.4829 -7828705.2786 -3622023.6586 -3622020.2893 
-7828791.459 -5008181.5527 -5007991.488 -7828738.2064 -3624012.0173 -3620824.2287 -7829686.7465 -4975749.2904 -4975456.1761 
-7804577.8713 -3618185.7115 -3600413.3135 -7802137.2041 -4770264.1789 -4750578.4917 -7645525.2938 -3671951.4826 -3714854.3134 
-7704159.6032 -8055162.3221 -5423411.365 -8289441.9045 -534589.35946 -636380.04741 -791908.7383 -583683.8162 -511070.33901 
-1154583.8244 -634194.20352 -2900942.9763 -2781429.7598 -6821643.0911 -4562220.0411 -7805271.0662 -3125585.6411 -2960755.4285 
-5470278.2479 -1853983.0521 -1751840.3122 -4465162.376 -1845755.0141 -1631561.7708 -3303754.5423 -834596.85994 -684808.60853 
-2321457.9311 -924319.35335 -2909799.2019 -3040016.2164 -6596800.9813 -3023494.5715 -3217036.1704 -5625886.6391 -1752504.7593 
-1861376.9497 -4540037.5872 -1620281.5371 -1846512.7563 -3301974.9025 -781908.89968 -923307.35941 -2418637.736 -1406225.025 
-576287.53173 70055238.083 46751540.698 17726990.587 50432253.953 6255324.6874 34834534.997 23776652.001 25685683.086 
-2715597.2545 -3378483.687 -2773817.5457 -2111315.2709 -1981544.4075 -1647329.9795 -1720729.4926 -1263749.7729 -18080809.084 
-20147302.449 -18322653.287 -26500533.322 -25236532.937 -46489690.632 -20256539.689 -21174261.974 -13623545.446 -13722954.25 
-13731047.729 -13680173.516 -15445422.956 -15840038.064 -13449822.197 -12429996.239 -12493447.852 -11709904.934 -12247108.175 
-11890992.831 -11928279.35 -11708937.224 -10206967.536 -10013692.473 -10228489.42 -10304554.857 -11128537.32 -11156075.077 
-10305166.41 -9128796.0046 -9318035.0804 -9148131.8174 -8980719.1545 -9379640.1598 -9401667.6409 -8975449.5034 -9092784.0179 
-9111268.6518 -8940494.1101 -9091246.8076 -9318388.9868 -9109352.5865 -8937820.9663 -5858541.6956 -5306126.3257 -5146561.6175 
-4401261.0141 -4492929.566 -3983733.6755 -4000059.3218 -9091275.794 -9109383.617 -8939743.8245 -9091191.7604 -9318176.9824 
-9109266.114 -8937196.4486 -9091154.8455 -9109226.8058 -8939652.2438 -9091145.7626 -9318153.0582 -9109216.438 -8937121.4951 
-9091142.58 -9109213.5598 -8939648.8846 -9091123.003 -9318147.2799 -9109228.2889 -8937111.0557 -9090929.129 -9318116.2654 
-9109372.298 -8939717.15 -9091123.971 -9109217.2151 -8937017.0299 -9092019.8921 -9108102.5818 -8938703.2874 -9316776.3627 
-9091411.1256 -9107546.1223 -8937655.1521 -9080884.626 -9102177.607 -8940315.4181 -9081890.003 -9245930.5382 -9024224.4236 
-8920121.0828 -9087566.9036 -9038028.2804 -8894178.941 -8975038.4893 -9203463.4395 -9436316.9114 -9264589.7416 -6545173.4556 
-6445563.3489 -6788280.5827 -6843202.9291 -8200719.6443 -7553945.1483 -7815531.356 -25549153.68 -38556142.576 -20673778.065 
-15805671.316 -17336867.524 -13955887.585 -9271036.7681 -9375260.1762 -8735622.4069 -8519620.9363 -8882127.2859 -8454631.631 
-36568827.99 -71054432.299 -73587262.571 -47602244.492 -38074102.136 -37651833.228 -59924226.851 -37960103.827 -60008231.461 
-33709212.541 -26256487.01 -28824698.977 -21411639.616 -33775846.63 -69835004.231 -71479832.789 -69045740.215 -49159887.97 
-75366092.178 -69325952.569 -47093324.782 -72927077.096 -70197691.213 -76551133.48 -50910151.486 -420009.5655 1909954.4868 
1261324.5752 2702705.9438 1000042.8419 2005768.8564 2499299.4355 2513139.5041 786296.45834 -335702.73933 -422433.1221 
-419180.71199 -419209.9835 -419213.71445 -419218.40807 -419216.24695 -419213.31086 -419207.4262 -419172.27921 -418649.5759 
-413957.14232 -414112.0774 -415413.75107 -388188.57373 -352246.78525 1837461.3726 88473.470655 -387678.52652 536509.60712 
-429734.43432 5823520.3823 -224797.41716 4665851.3128 4054917.4648 1235271.5423 -710036.49168 3564292.3504 -969928.38474 
-292706.15242 -690977.83896 883524.95333 1372241.8047 144188.52861 200076.98876 1661837.0725 1149231.1777 1998454.3529 
2057428.0723 1987496.296 767948.61925 1710867.7575 2354691.53 2078891.0483 952112.32116 2171251.1249 972319.48335 
743867.24114 1382862.6095 -252987.83706 -382340.31963 149381.60679 -423211.59874 -429172.67035 -326272.95396 -394873.37236 
-394162.66832 -340038.21762 -426640.16762 -426543.9676 -337653.10156 -393703.31134 -393724.36145 -337443.54696 -426531.26107 
-426541.44403 -337442.29941 -393730.65581 -393731.78212 -337453.83414 -426538.87998 -426537.97041 -337452.1749 -393729.18784 
-393727.18611 -337451.36126 -426534.89116 -426547.49438 -337447.82951 -393760.95209 -393834.6582 -337473.09507 -426684.84342 
-423172.60835 -337381.0427 -386011.88544 -385451.33795 -335408.1924 -423117.90068 -427267.28443 -333948.8117 -395680.37058 
-390460.88584 -335736.85347 -420379.79267 -405754.66683 -325249.37886 -376966.02172 -294905.09558 -302661.40152 -145284.8256 
-298140.63139 -1545696.1635 -1266803.9531 539567.37787 891269.53518 416368.08836 859914.39708 -44042.944208 1875759.3952 
1438574.2582 1810793.4376 431579.28481 1993152.8476 2220536.8432 1903903.9861 1117605.8354 88547.987835 1252676.8118 
-403598.63215 -268399.75175 -400649.99731 -397972.17547 -426864.24493 -429266.35927 -393670.77129 -393814.97357 -426524.46476 
-426532.98389 -393731.47401 -393734.67437 -426539.07398 -426540.99839 -393731.80773 -393732.0178 -426537.21857 -426537.40357 
-393739.97937 -393729.80947 -426633.05452 -426583.92475 -393397.20856 -393966.41479 -422965.34388 -426394.25334 -386291.61352 
-385889.61618 -403421.46265 -423451.11391 -348511.02683 -346804.21683 -385283.35707 -254802.80124 -200612.79146 -136384.18786 
-138799.59806 -243705.37762 -608187.53249 60926.055136 -374127.79572 56580.613072 -392785.80423 -237598.91774 -386341.90725 
-306231.37628 -251698.37553 -284130.35338 -94456.331829 -204557.83785 -182077.44285 -248307.97068 -122275.44363 -148675.02336 
-31869.887967 -88845.602718 -70261.593888 -155071.84975 -42835.370364 -98663.03815 -277649.48573 -238366.71238 -250573.38261 
-177131.24553 -200001.00644 -139563.35507 -143523.25152 -108652.11323 -89242.432068 -78291.136543 42162.044281 98048.010233 
72374.883345 26584.35743 76594.164161 10606.68563 66953.982037 82543.621263 25182.190693 74720.719827 66055.630616 
10709.180803 -40917.337068 -79535.725528 -34531.327164 -67611.216792 -54542.962119 -60557.239723 6607.2081319 -83963.831399 
-44307.516465 -50425.93956 -65621.072831 -262070.12296 -268193.17095 -203772.2595 -134708.4636 -169722.23906 3538.2637042 
-523393.05054 -424973.21715 17411.01459 -438653.65954 -256050.13528 -390295.20335 -371607.36758 -280292.85026 -251014.62742 
-108028.41893 -177922.38575 -201762.39142 -258780.17282 -133378.59035 -122562.54856 -37185.645096 -101907.8652 -88399.185322 
-192347.27032 -65237.309732 -76343.194561 -303416.42329 -293356.1745 -266631.67451 -213915.89295 -180428.80508 -135258.11914 
-140484.94212 -94775.758736 -4857492.3226 11500032.381 13096228.92 19147415.452 -24040124.789 1046659.3062 13001917.063 
-21328352.426 -27902184.735 -17810221.226 -22054861.356 -2503937.6988 -8610156.8093 -29535250.351 -18830068.869 -9104945.6488 
-1817428.0805 5938390.6683 7938464.1558 2441065.977 2527612.0967 12051279.589 11316358.117 19050991.554 9048537.7064 
1451506.4351 -6875295.7815 3661104.5673 -6118069.6884 19764447.469 20020589.997 26497854.615 25375445.231 25388037.751 
16426056.374 6422727.4366 4405463.8663 17727826.191 17145431.12 18945545.225 19094821.596 18617704.945 9282086.5032 
3830470.7805 -4135884.4836 -4115906.8849 763423.30332 -14188072.859 -14159695.853 -16563012.201 11294405.89 4933603.1423 
6169946.6519 6185534.4168 -7405095.6034 15210974.63 14193762.551 31585633.932 15466114.617 14325650.382 15568990.354 
31580277.428 11923854.151 4152172.7104 5195660.1592 7677230.0666 -2538368.2327 -2101012.8264 -452222.45142 3931442.1449 
9738952.8282 18804274.762 19268456.086 12177957.017 -1651584.2076 11862581.463 -43020544.791 -14083598.04 -16435111.637 
-31066702.32 -2696782.878 20409226.09 20640561.371 -3551378.6647 2092504.6337 -17228978.328 3912277.1479 -2608691.0895 
7373201.7749 -15969869.428 15092801.879 16417097.333 12916801.063 19010827.049 11455169.186 18967152.82 11466460.175 
12886479.358 11021123.537 15454398.815 18528835.252 15985644.029 19281681.109 4207097.5096 19982630.396 23065293.9 
21063915.471 20713996.66 8772477.0383 8883256.3583 16096281.445 14152501.64 14001129.885 -44707353.458 -45398443.356 
19166187.446 18597518.37 14769357.051 82707108.517 6393105.8916 40391689.312 -5273091.2404 6535994.8151 82578327.962 
-5263865.3151 24877939.336 6774349.9739 7177038.7664 7000726.1208 11356300.938 11352743.45 -12604936.303 -27564219.457 
-22090831.674 -27403319.002 -27605284.015 -12634714.189 -22119515.814 25116923.72 3532636.8273 -29282909.148 -29028649.729 
-38720169.847 -9645616.0755 -9308174.125 4676565.1904 4659565.2652 13131199.147 11405585.94 -26875182.505 -23829633.884 
-22197787.296 -20129162.649 -26884074.725 -22551858.512 -30106850.827 -22571959.525 -22231673.253 -30867761.762 -25386649.752 
-30852542.715 -25438983.592 21548598.597 6571910.5187 5542310.5483 -24919276.427 19934001.377 22947822.443 27048511.819 
6751628.2088 21716606.417 27238149.109 30355085.094 29091270.138 -11039658.193 20815562.6 -4556887.807 -11033395.779 
-25815511.515 -24158467.5 17874544.845 9694176.7998 -21245607.995 -14539401.955 -21822194.775 9760288.1552 17903428.439 
27543065.406 -853313.68522 5212377.6181 226400.59874 -1166129.7005 6439138.9797 2851107.1374 -28589873.989 5215222.0672 
-854338.15646 2835567.149 -29214024.043 5073886.7786 21581533.869 -23104476.099 -23132055.648 -44292944.141 -25108913.419 
-45569289.596 -26440820.368 -28622984.306 -8194306.2096 -9588182.3822 -2910275.6829 7299433.7502 -9591850.9945 -8145006.3721 
7263859.4949 657909.80554 -623408.90437 1005836.1919 103523.31693 -23753676.856 -23709595.726 -9676137.2339 -9386141.818 
-8825263.0624 -22014519.639 -22879821.008 -14670166.418 1048451.3069 89099.530447 -642091.21707 39443991.156 31682830.057 
-3043065.8091 -2466114.8663 -29089445.304 -16589050.269 3133909.8561 -16690943.813 3047809.6882 -19901066.236 -19766854.122 
16943586.374 14709203.138 16887456.397 4067740.7551 5674291.1568 12135455.146 4158919.6746 3218184.4391 3993332.0964 
7447368.0301 12182645.12 6736266.3942 9966368.0083 -593699.31859 -159038.78733 -202283.03086 28243018.735 21121866.277 
15122677.177 22534313.465 26858674.665 38284672.883 -17339744.167 -17343270.434 -20378019.77 -6881815.1565 15619743.346 
4655718.5371 5024171.4979 20100340.9 14932296.096 22031150.508 20558477.911 -56733136.533 -56614111.469 -43757972.292 
-4753056.3944 -71527.301552 -11988329.376 6826526.0739 7501405.5509 -5944942.2461 20301083.473 19743039.695 -15521.750844 
19922.540835 4806.708714 -23600.444575 -94824.0369 -23481933.209 11229409.234 17902309.993 16013199.837 11253307.222 
16044869.98 17969812.971 1802759.5424 19547603.513 -59970581.063 -60597048.898 -47794147.729 13251924.694 16944794.513 
-31039672.458 -24187444.689 -30514997.534 -24154822.918 5501440.2335 -68020.889779 -64494.653982 -410230.90674 13260141.603 
16982531.402 -56267681.399 -57913999.496 -58725280.338 -43936737.965 5613758.6049 -610063.71081 -589829.58923 -588778.2191 
-1109648.4198 -602770.62821 -34708487.167 -33258343.529 -182082.49777 -304768.40867 -444196.75362 -298936.43715 -181264.4714 
-1680015.792 -1125024.1405 -556794.94812 -8225895.4847 -4275811.5223 -5733672.6821 98169.737706 -34813553.343 -33268326.335 
-37731328.642 46090159.268 51889852.16 28800263.402 95827.082103 -61291520.737 -575323.62387 -1029055.4482 -37261227.19 
-36211378.04 -37301545.513 1511451.8512 -795953.83462 -927428.76261 -890933.80794 -1444835.6044 -786521.86383 -1610308.2604 
13211558.34 14894822.387 -6668548.8513 -3631388.3703 -3558769.0083 -4926520.7513 -7790625.0353 -769917.97915 -13093914.717 
-560634.22611 -61463666.032 13354504.348 -19145200.278 -20886242.37 -19151218.322 -20892185.566 -2299772.057 -3660848.2647 
667710.38037 -2625574.4793 -2787914.8508 -2735672.2458 -5296754.7686 -2620355.7574 498908.13104 -3936724.4945 -153541.78126 
-21520868.436 -11007866.406 -21576230.198 -10964330.014 -904597.28133 -906013.04431 -1692281.9967 -1375510.8125 -696123.36709 
17496845.886 14561515.624 17549691.213 14617823.207 -906525.03366 3141590.1011 1950981.5841 17418909.211 38334328.534 
-7406093.4041 -11325146.482 -7626699.0886 -9185483.3618 -3632007.5033 -166393.93014 7618941.041 7709851.4942 -40437103.342 
-21952900.575 -29147422.159 -34289608.513 -47852874.716 -1834943.839 -3409621.8953 -1823276.5654 -1617568.9751 -1626647.4363 
-1598081.7323 -1815661.233 -1824696.9859 -3381012.6881 -1620706.1111 -2916116.4238 -2728975.2106 -2693785.1226 -5442093.4707 
-2810372.0353 1085219.5376 602672.24888 5109047.5318 -710033.96766 -24411969.864 11833782.947 -18746217.889 -3830090.9418 
-5066700.2838 -4935207.4055 -8607981.9903 -7960659.4922 -353654.71621 -335458.6481 -1941091.8833 -1938430.4213 3245778.9125 
2046864.6275 6039388.2583 2177629.882 3504032.5395 -1924862.1491 -1910989.6164 -2097070.7698 -5389177.4916 -3131125.7788 
16439346.392 -3608578.3773 -3511465.2399 -3580633.8955 -6607134.3704 -3525027.7712 -3592547.6024 -3539864.8493 -6532327.8098 
-60325167.002 54367034.337 60212262.921 22905371.954 -3600372.8579 -3546951.947 -3599264.6454 -6545755.0897 -3546764.666 
-3599373.4578 -3546636.8251 -3599337.222 -6545597.5925 -3546603.3104 -3546522.154 -3599353.5408 -3599349.6122 -3546579.5289 
-6545532.6202 -3546616.7131 -3599345.0504 -3546622.6005 -6545591.1347 -3599347.7312 -3546621.2125 -3599346.3663 -3546614.6217 
-6545588.2509 -3546619.4276 -3546619.464 -6545591.5697 -3546650.9159 -3546537.4122 -6545561.7076 -3546614.7974 -6545583.5499 
-3546616.1041 2135523.2828 -1359471.6805 3113329.8043 6850770.873 -3597210.7761 -3529177.748 -3547022.6506 -3532083.9008 
-6542640.0972 -694383.4824 -992549.18449 -2276825.9752 -2320537.8111 -5555396.6485 -3549943.8703 -6545356.8665 -3547260.6566 
-3546650.4296 -3545715.8508 -3598761.2526 -6545041.4544 1484553.1306 137251.74513 406391.44359 1161445.64 -225776.59192 
568782.4172 -361821.2167 -2002834.681 -1090078.3401 -265952.2325 -4202533.8176 -460899.75523 -3352822.9157 -3044917.0233 
-3167338.7711 -6522621.2152 -3553375.8674 -6567841.3136 -3617546.0376 -3559352.8338 -3604875.4361 -2701112.6337 -3314114.1062 
-2704799.9333 -3553212.6496 -3547230.0002 -6549946.5234 -3599966.9149 -765529.01345 262992.48168 -3291103.3115 -3598873.1107 
-3545268.1752 -6543669.0467 -3548588.9377 168185.41017 1746254.1837 3970337.6825 6350693.8391 1302050.223 91219.90121 
1225046.927 302102.25342 -3548665.2463 -3599019.1928 -6543919.3001 -3545511.2086 -3599312.5839 -2716613.1157 -6317176.4054 
-2231360.1908 -3547455.551 -3598723.665 -3547403.0496 -6542030.7526 -3598670.7502 -754719.34056 -193635.20809 -3303410.7983 
257441.55288 -280387.72 -3547431.1015 -3598691.0769 -3547425.4736 -6542023.4694 -3598682.6369 -3547433.6868 -6542020.1957 
-3547419.749 -3597630.2373 -3526233.3743 -6541830.9141 -3531307.2492 -3548874.9816 -2724327.6928 -3045656.7058 -2232977.4016 
-6316560.3207 -2269617.0397 -692248.13598 -995747.06246 -5545649.081 -2311528.6028 -3547430.3369 -3598686.2602 -6542022.0734 
-3547423.9022 -3547945.7143 -3599699.2386 -3547625.4808 -6542273.6338 -3598579.8438 -3550628.1768 -6542781.1418 -3549639.8954 
-3547476.6384 -6542002.7932 -3547337.5414 -3547431.3799 -6542031.3105 -3598686.2338 -3547432.7552 585618.33915 -423743.40835 
-1990752.6292 -3598664.7298 -3547375.4693 -6542587.4355 -3548357.5238 -3350369.1544 -6523717.0817 -3169476.4582 -3547515.4443 
-6542079.0692 -3547473.4055 -1092248.2871 -469498.77468 -4214839.3908 -3548142.7232 -6543467.4304 -3548683.0469 -3546349.9447 
-3546135.3892 -6544740.2039 -3598827.8611 -3541720.6485 -3548069.1293 -6537952.3546 -21968559.343 6194252.3637 -3679329.9312 
-7925481.2639 -3689613.2393 -6738293.792 -3553536.6439 -3747979.6935 623598.41367 -3922601.1066 -4842410.2705 -3884171.7504 
-3166275.6572 -5483417.9904 -4379739.5585 -3194428.253 -48035617.105 -3087866.837 -4383969.5555 -9961522.9767 9416402.3142 
12411325.943 -1253244.5303 -6783910.5989 -260161.59022 324320.30844 1286784.7585 -32585277.477 5837365.4673 5235312.1719 
-43776988.394 -34698245.325 -49405589.704 -28810906.667 -23758439.037 -3017787.118 -4324829.4004 -5069450.8831 -1711301.727 
9408524.646 -4383240.9845 -5158596.4264 -5893692.6331 -6444703.2114 -6367163.8541 -5522567.4703 -201547.67708 -199659.89885 
-3164019.3183 -1720798.2661 -2227029.5197 -1951382.2319 2173778.7334 -7466832.7495 -1702006.983 -21137131.975 9450079.0181 
-4176632.3323 28580602.587 -2352323.5997 -3091181.3929 -3094749.1925 4984595.1829 4425775.3357 5965647.5128 5382342.211 
3124723.9334 -29212436.393 -6828527.5903 -19799422.305 -28459424.082 27006485.012 -50591742.729 -5192665.6068 -32676.951131 
-26025.660317 -26482.019942 21899.372339 -422443.05927 24043143.34 -17577082.467 -2854216.9793 -2795683.609 -8030509.6098 
-8398844.1575 32941516.287 18556672.579 32097051.148 18668966.035 -4989901.3781 -7779234.8142 -9368856.6773 -8180547.1458 
-9386332.1552 -1007514.6316 -1013753.813 -4904229.1101 -7753863.1659 -3885593.4828 -7994368.358 -2998690.8168 -5741668.444 
2611594.0906 -4996620.7221 -7787092.6556 -2912291.1043 -2666069.8194 -7785912.1095 -4996356.7554 -4286303.3991 -8148857.9587 
-4996594.6864 -7785383.5544 -4996468.0465 -7786259.2203 -7782704.9934 -4997002.0604 -7785381.5836 -4996948.3358 -7785381.9765 
-4996593.3447 -4996549.1864 -7785392.1014 -4996621.7049 -7785404.5614 -4996600.0454 -7785381.1792 -3388275.2001 -7300162.1091 
-4996609.9409 -7785379.2413 -8000086.0059 -4603927.8085 -4996834.3871 -7785418.6492 -3709398.2192 -7721790.5783 -7785389.0236 
-4996641.4108 -4964874 -7763654.0652 -4964835.1233 -7763641.7406 -4965044.3473 -7763660.3587 -4964874.9089 -7763651.6627 
-7763653.303 -4964866.4449 -7763662.3561 -4964834.5692 -7763737.213 -4965260.239 -4964841.7656 -7763632.2886 -4964868.0392 
-7763654.6212 -5466325.6957 -4241453.4 -8112109.1382 -4965386.0109 -7759131.245 -2718627.9601 -2539958.745 -4565833.9273 
-7970385.7903 -3668168.0914 -7673988.9696 -3316187.8878 -7244931.5151 -4964947.0997 -7762800.9351 -7773809.5659 -4969890.4293 
-2803587.124 -5627117.3398 -4965361.4535 -7763169.0027 -4873019.5053 -7728971.7626 -3837308.1603 -7942875.3713 -4964091.0163 
-7761716.3369 -5696770.0343 1179742.552 -18096486.092 -17881153.046 -21782973.644 -19426851.199 -18095567.13 -21750540.25 
-50448827.488 -4513348.0769 -8091242.8855 -6718395.0506 -7407711.7262 -8621299.3648 -8363146.5349 -6714098.2704 -11536089.888 
-14372496.626 -9790011.8478 12630612.77 -18237500.556 -14368677.114 -18873122.232 -14471492.414 -38727016.636 -17737439.241 
17508430.273 -5629604.5771 -2860764.1208 -17437523.566 10698700.404 -32101606.917 -19027666.594 -9404656.4824 -11396573.552 
-17404582.239 436089.57815 -62948.771159 -16278860.584 2102165.5628 -3327540.1036 -9171257.1651 -4752873.0853 -7596282.3242 
-7496118.0348 -6422273.0007 -8749998.1938 -8316986.9908 8499480.8628 -7706570.0976 -4868657.3442 5596065.8532 -18934407.636 
-9151975.4746 -9452325.1423 -9172401.1616 -98533.897742 10483.879447 883341.94984 -5565290.5344 -6268011.3883 -9220603.8577 
-110904.61768 -118551.28055 -612205.23131 6073896.0754 -8084494.9073 4754663.9224 -10623827.363 -7264285.8119 -9407207.4428 
-9166042.38 -8160465.5614 -9166048.8407 -9407209.3727 -8160494.3344 -9166058.131 -9407206.0575 -9166055.806 -8160505.9036 
-9166056.6806 -9407223.8402 -9166067.4333 -8160497.825 -9407208.4119 -9166055.7026 -8160504.7554 -9407209.6778 -8160502.8942 
-9407160.0894 -9166008.3723 -8160540.3278 -9406887.9432 -8160152.4715 -9164903.1348 -10699423.521 -10618247.654 -9831397.8118 
-8761270.7924 -9162339.1736 -9404550.0746 -8158683.3612 -13275858.577 -12338911.771 -9723293.4158 -12876160.314 -9167568.0529 
-9407222.6775 -8160426.1766 -8159960.614 -9167667.9372 -9406838.2431 -9166735.4072 -11547166.662 -9254111.5002 -11679439.632 
-9262001.9249 -9441288.6983 -8178513.9329 -9260967.4508 -11654469.018 -10725111.733 -9249786.5806 -9177136.9057 -8178847.1222 
-14192170.778 -17318410.355 -17415157.748 -8366553.536 -14334273.526 -8249122.7477 -17118222.404 -9802345.4022 -8337711.266 
-14453160.976 -12933167.744 -9498243.1202 -9529237.8016 -9849850.4225 -8338346.543 -9665164.8665 -12495430.581 -12370438.188 
-9407162.2343 -8178970.011 -9182113.6968 -9673954.8078 -8179162.9977 -9182207.3155 -9183716.866 -9183713.265 -8197544.9596 
-9183683.2606 -9183707.9801 -8197555.3552 -8197497.8888 -9183705.5891 -8197504.398 -9183702.8039 -9183703.9626 -8197504.7007 
-9183701.5965 -9182491.9164 -8197179.0217 -8197508.142 -8197513.3664 -8812747.2603 -9817354.1041 -8195693.9769 -8197559.9429 
-9182407.0348 -8197583.0105 -8216077.7682 -9403152.0645 -8182023.4916 -9167557.8014 -9169873.7024 -8176070.8474 1413204.168 
3070564.1908 -41439156.212 -41415126.303 -9287149.4488 4713577.1242 -3203110.5424 -6709114.0352 -4986825.8604 3600023.296 
-7450443.3867 -1717583.6534 -20093154.943 -20550710.38 -7731886.9121 -7723517.6125 -4287930.2818 -4796626.98 1294710.1025 
13503098.929 -9096758.0668 -9399604.1834 -33843630.15 -9158975.808 -9422559.0499 -8069985.2224 -20477365.473 -2177401.1095 
9587934.9106 -47398120.065 -8123407.322 -7648802.739 -8597979.3695 -4169601.9731 9731254.658 -19605412.426 -4057561.7746 
-4518725.3678 -4148121.8306 -12157864.421 -47972153.285 -48690660.454 -38099189.306 -49086841.47 -2274706.2203 -6988273.7094 
-7159160.9955 -2958614.2964 2489251.2035 -47618808.895 -7054093.5645 -35222203.411 18412852.335 -5992002.725 -9743077.8533 
-7391180.7069 -2258704.7606 14415206.889 12384027.646 -10213161.69 -16670209.878 -16693200.267 -35339667.212 -34252527.836 
-50322170.679 -3518705.4318 -3639816.3089 1895978.0487 -13130560.931 -6091846.0554 -6049543.3573 -47406287.199 -13253477.118 
-3852981.2947 4196599.3704 2112661.3016 -74437.162289 27234.80239 14646305.537 4398.7891105 12260110.428 12214065.976 
6669522.6308 11563679.495 6534.4011926 -6478.2193142 13811986.4 
Stress%20xz%20component 1 3803 double
-810687.8627 770729.53928 16640.269904 88775.950221 -12570625.829 12422638.382 -440148.65463 -3921252.5397 3885768.8017 
-612121.20391 -6011833.262 955310.87846 -576071.21433 -8139.0971995 35582785.695 2796247.2459 -1002918.805 643275.44475 
5142.3720922 -34841706.962 -12859550.069 4465810.504 -1095366.5602 8883986.5083 5161179.5631 -5578676.8065 -2901663.7537 
-167733.86353 2141.8168919 -2257.2992224 96306.150803 -64951.699487 -436157.69663 194505.8579 1063.0369129 4609.9376234 
-2562.9675568 -256799.29697 246634.28437 -76110.232165 -135558.69225 110723.76527 -562662.21713 -83814.431938 -676013.41741 
-189501.44843 -97834.62133 350359.88038 -759.71466753 611700.09314 182477.61696 81006.271593 -259712.06068 -8019545.7845 
7682416.0424 -1176893.4393 -852010.52321 406965.34646 -1165081.42 -1413108.384 -769282.31418 344178.84046 1396767.2435 
876391.78323 -292125.38794 1240835.6312 1488096.378 766108.82394 -320207.18056 -1501034.5097 11547.473278 -2577463.9095 
2618966.729 1943951.9165 141014.14539 459057.36726 449074.48421 -48074.17771 401691.17373 664552.48582 144788.18322 
-258431.65022 -439532.91782 -392586.62296 27885.578587 -460156.60172 -633493.13977 -301729.7173 234852.04333 -3333904.491 
-5971029.1561 -875953.73174 1268443.0232 -3608113.2162 -4873497.5859 2660563.1624 7802842.4676 4333508.9594 -2682947.7005 
2843033.8745 6701314.729 1760907.5132 -324968.22334 120732.53775 387992.92261 186763.63229 631005.6772 3265.6430132 
279813.80553 260079.60561 83759.129007 -813698.57814 -407009.35237 182042.04559 30655.940267 -1289620.1125 -904888.52357 
-151182.08246 90631.544715 7746.0662407 42845.038085 151924.54705 -4465925.9043 6732.0361429 116427.97206 -784733.34102 
2422719.5358 5783590.3298 -980184.60074 1574992.8853 -535501.43333 -12969031.848 -3346121.3007 -349535.96255 -111216.45389 
511576.65509 -4990198.8103 18458824.593 2258240.7058 4775701.5392 4839271.7407 -595426.03142 2772295.6027 4378218.3205 
543222.43511 -4004015.8047 -8608119.3435 -1880117.3838 1879406.3488 -5965275.0837 -3008072.3409 -1981764.055 320318.43025 
-19252.482612 -420125.97291 -342348.17144 -586823.16354 9876.412273 -518224.69723 -238885.95481 -156093.85434 782907.89996 
416635.71789 -181586.91895 -22858.529828 1293661.7353 899806.89958 162149.76012 -92361.798205 1499.0185363 -47979.421925 
-166438.36785 4684255.1832 -16610.151433 -133555.44255 846216.6895 -1084322.9195 -5797436.8593 985159.17265 -1564758.81 
930827.8359 12753577.659 3231459.8596 336262.58684 110614.89881 -406934.97481 4815500.6801 -18479653.606 64685.881772 
19372249.466 -19038950.355 -14571272.225 -15087659.827 -20768284.368 -25460099.582 -11157796.387 -19620134.585 -26804194.339 
-21747314.675 -223794.16116 3235727.7161 -1136189.4636 -8905663.9759 -4424721.2754 -469361.58892 -6486731.795 -3986721.3933 
-8121368.9572 -1176457.989 -2966250.7343 -5668000.7957 3786042.8562 6139660.7553 627960.94984 6721360.0429 6656536.6895 
3532041.3208 3177130.1635 3226578.4255 5686829.0361 16382590.013 22614898.28 27334699.107 8699103.7679 21314816.885 
27106215.057 22744322.875 15718257.216 3730781.1095 12532921.556 30345656.285 22164749.054 495973.81841 26682982.533 
27416939.428 16389958.021 65585.846085 3117663.4548 -3149802.718 -3972211.6818 -25321.950157 -574662.34972 590985.98918 
439.61199566 -1420.1400959 496.6199543 -20114931.069 -25235319.329 -22006070.297 -2444140.0806 -27584414.067 -26688594.895 
-16841225.497 5368456.977 2184953.0586 4748011.5292 5608509.9548 130069.21183 11723504.939 1321281.5661 -2688401.5398 
-2505756.514 -1313746.7853 -553761.30246 473392.15992 -836813.63358 93916.873278 -470022.05637 24273.880539 -68313.147519 
-128843.22856 -120918.11822 -121326.70924 -121398.98315 -121413.71783 -121419.78606 -121421.93363 -121421.26478 -121418.17833 
-121419.08819 -121488.22769 -120897.41444 -120784.72993 -122756.21702 -118999.15835 -126656.08032 -66480.173677 -5350250.4447 
-3148056.4134 -2623927.9289 -1381339.9201 -224367.12933 -728994.29794 -309738.0114 -958899.10544 -258541.94268 -281755.94612 
-96263.187989 -72783.31647 -130562.27915 -75169.719583 -130308.33314 -75218.522932 -130323.5698 -75222.289461 -130321.76064 
-75216.89913 -130320.71332 -75809.316117 -130563.66641 -75854.906606 -130535.01897 -79326.825841 -119142.94672 -155395.66478 
-61243.872019 -104198.86805 -58340.438069 -62771.47343 -24244.328127 16167.148981 -108773.95203 -46966.832639 -90968.726982 
-31649.463125 -49115.956943 -30183.513434 16859.042016 -2943.0968646 2809.2226997 3739.3741123 7414.5493913 -9134.9211801 
11532.368173 -4149.3680126 124952.87518 100921.36601 54458.345471 66711.311299 8471.2699444 -5699.1373146 168018.27245 
58177.105541 93384.303409 34311.651126 42895.799401 47181.446267 -20739.468509 3962178.8167 2633139.3518 1848628.7545 
597474.72483 -440943.99385 828516.22326 -79669.70731 446302.06346 -3605.0044202 67881.4166 129644.47555 120449.34346 
120946.05159 121008.47783 121011.83625 121014.34171 121015.94953 121017.17654 121021.15413 121022.0847 120960.81642 
121556.93586 121749.65629 121248.40501 122912.6731 141521.34034 135983.22513 5645965.6068 6224975.0957 1890758.0646 
1280516.9335 265823.62923 752478.21013 316943.25472 955861.90371 257212.41848 290412.63821 96051.337791 73187.172018 
130835.64024 76717.442255 130544.51963 76741.227222 130550.62459 76743.406382 130553.75566 76750.481019 130557.47863 
76177.628683 130417.8244 75951.808186 131299.70742 71403.116776 184924.26063 87771.867473 -1301.0346125 97878.017474 
-119003.18378 -3360448.6571 -2961317.0338 -1143162.4001 251443.41887 -653911.67673 446497.13759 -494246.91357 -69069.12428 
-631713.09541 42299.204945 -116643.80134 -123301.42067 -121183.05775 -121002.77385 -121019.33778 -121015.75971 -121014.80621 
-121014.22378 -121011.85718 -121001.34385 -120926.63446 -120831.54989 -121295.45562 -121723.69872 -120466.02306 -131164.60921 
-117790.21457 -4393347.7463 -4077102.9151 -3148570.6781 -538604.19855 -663863.65974 -102556.85145 -809653.64722 -217397.58144 
-688375.22392 89725.799998 -49531.707338 -134196.7384 -76886.613803 -130566.71695 -76747.021991 -130550.27289 -76741.640871 
-130549.16739 -76739.330713 -130541.1962 -76772.188336 -130477.38988 -75667.33642 -130042.44005 -77524.094311 -123231.15804 
-180043.98012 -177405.65218 -5594295.4415 -4035906.9788 -2622379.7283 -5812890.1159 -786866.02991 -9587257.2432 -5176618.0852 
1324894.787 2371732.4773 1697498.1385 -37967.088846 667907.69597 -439176.80181 488156.42284 81444.665458 624076.55956 
-40106.102846 117316.35985 123901.29048 121634.17008 121425.04983 121432.41232 121426.38491 121424.86073 121424.46468 
121426.27282 121434.28833 121500.97489 121571.72406 121014.22109 120871.85644 119611.39052 102305.17391 117036.27871 
3132657.2501 2426928.9355 3460376.2405 697415.80536 804754.70424 109994.22634 802313.93226 222458.19813 694015.56946 
-88434.125288 49879.94075 134176.83635 75323.844425 130372.63727 75239.785452 130329.19432 75226.092162 130326.5118 
75226.588941 130333.30675 75188.202369 130383.85284 76244.633529 130262.31909 78506.158273 125280.55825 85696.605138 
197956.41708 103996.48316 96604.384636 68054.73729 72201.368989 38320.41356 -12817.068749 196191.0265 99075.029077 
102998.3125 45770.199078 64918.003321 55027.621263 -22828.520551 4836.7420306 -4872.1653078 -1633.3788398 -3372.0639826 
10609.555447 -13688.257729 4153.5015319 -108123.93731 -112858.02761 -78195.270535 -64135.672079 -22464.361699 10532.50295 
-73942.046842 -91724.066921 -109885.82949 -43906.397946 -57996.659745 -52081.417027 26590.678533 -711206.62111 -3210320.1637 
599148.40022 -90932.431441 -212256.54766 197453.80603 898.28891479 -3379.0694895 6171.4258406 2609.0623081 14013.803767 
-9397.4333272 -30565.78105 58085.50622 99011.986727 -481838.61111 45119.300437 -303603.19798 517589.49756 375025.09163 
-151745.37356 -56920.858901 -213098.72013 121133.55994 149093.25252 -435375.49998 -80484.474575 40800.0211 -23122.338097 
-7504.9607031 366244.02098 48806.536024 20792.262908 111399.49846 78235.030019 51677.427868 -377973.97973 -616748.90895 
491539.70005 823583.41867 465642.48377 -196628.29834 847887.95877 -472581.79875 -685853.94969 -648510.58186 -429663.14591 
60300.335366 -512762.89483 -261957.33176 23584.938156 22773.28434 453783.11532 740729.14882 248468.81435 546921.09428 
206.24815822 -29699.179136 -1473238.7556 34224.78478 38948.698386 23495.319642 1720514.0058 -45986.826353 -35004.278318 
78319.153405 131669.10765 -202497.05378 -2293864.79 -1422219.0211 -56755.693943 -1337545.2798 1561351.0133 2746913.5201 
1484710.489 253536.54203 -692964.46885 46475.710796 878837.82477 416199.25788 383443.82016 17417.893285 220664.47695 
397052.49491 -4888.9030682 400328.10591 37167.987407 15296.896432 30937.80613 -420085.87678 -472455.02746 -178006.9422 
-353230.71177 32854.466338 -351016.58226 87875.18129 169155.14227 -88712.754722 -691547.79907 -131587.66654 -24068.465151 
215463.9892 -190949.94045 1621733.7847 46359.633488 -20246.83784 704403.95011 -453152.08162 -128555.16672 5719867.6879 
122829.68621 58499.22641 -132518.14333 -144496.63308 -481959.43288 4980944.5475 105425.60451 182770.73354 96380.645954 
-341828.61257 51020.244486 1028575.9323 99153.748425 -5422640.7218 167320.59957 -195779.48307 -100733.31637 -323910.23854 
921292.99559 1163879.5926 76414.628279 -150641.20292 -3917149.1699 4076380.1388 -8102.785272 -1199170.9566 1661358.5909 
-512833.61917 72998.053553 134114.11749 212091.78581 183260.41419 218493.80744 -2794644.3484 -135594.34195 5136972.4494 
-10285641.846 -1440913.9288 -697818.98633 1760690.4145 234234.81536 61371.811947 183353.52573 -4445365.814 -5480549.1405 
6774024.1235 2399465.3517 1902863.5079 -150092.82051 -113578.08745 -1164012.8445 949154.18493 1025439.8673 -16818.814496 
23729.585036 1213926.0616 2454046.54 1383878.1004 27012.369967 -6353769.7226 4528432.7277 21094129.54 -20088983.397 
1179811.9866 -3214634.1652 -4002972.8982 -71765.747426 31710.313247 -983471.98919 -8629.4123769 -58021.614787 126234.88571 
-97417.966735 -127546.36563 -231375.15726 -438493.66406 263097.50074 144091.80904 -438138.43855 -306552.30083 -9691858.7041 
-5706080.0046 -169366.32007 -10671061.467 -6834529.4085 839388.31262 34340.977021 -551641.20003 206614.66742 -270341.20008 
-296067.47258 -1174027.3454 7819538.1183 3313437.0023 3112817.8109 13228569.51 6418863.4621 5831745.3171 4680621.6967 
-762347.24355 977.27238567 1957458.1248 -103238.23243 192215.51675 443160.44842 140924.85089 61669.319933 97350.136042 
50117.431365 -283521.69446 -135496.9191 427989.79874 367684.73069 120291.09649 72012.287011 63502.106088 227430.38699 
-836828.09037 1107142.8177 -1437803.3089 721799.29019 1436448.436 -1707799.6078 -1416562.7154 -73284.795499 881029.38197 
-519722.47667 -434727.94316 -428433.4166 -346211.58989 1269876.1136 1097492.3589 1721088.5136 461199.13094 296397.77686 
-2244419.2548 798935.8669 369841.82731 4509661.5898 -1635617.1698 1390681.1077 709035.99529 2121825.9402 375368.07527 
-87038.136442 371402.81237 584968.72356 135766.93459 865776.36846 547622.76543 63384.071227 705894.95356 2040349.3879 
2635936.8833 -32693.79495 -637376.21616 -96194.404113 66995.397758 770689.69515 347795.78679 -737699.39431 -195469.13705 
-917255.21182 -201019.10944 -2075028.6907 791781.64005 -192574.34875 -32180.911727 -1361455.6128 -964176.97331 -30601.003105 
-956399.14792 -526802.32363 1648071.243 -411534.00282 35209.115315 225172.78062 -2910299.4244 -414139.11787 960785.1474 
-552644.20461 -326964.71499 -540777.2103 -647797.29849 -892268.0919 549459.80919 1539853.2931 444717.42267 -1444878.9928 
-801876.85108 -360497.18971 82398.777705 606268.27686 131870.20538 -24038.259926 -223523.85823 622192.1005 -1621112.8008 
-203163.07725 41915.199715 -626332.86262 715759.86841 773734.54366 -5651808.4099 -88788.99152 345656.92541 434283.56912 
195342.60283 445849.21569 -4896818.1648 -119791.6511 -219801.34618 -81851.074696 351378.07024 -164119.0874 3415803.2634 
-103900.50849 5413616.3977 -141275.69609 16646.593444 59281.67136 340415.70978 -587402.89386 -709529.4657 -77492.105823 
411609.0738 3939357.2571 -4357979.4393 30514.24371 1336282.4832 -2545115.4298 745204.00118 -74760.846368 -93696.868387 
-31206.485585 -87885.144997 -245126.97232 87811.183468 2910184.0131 10343150.182 -5075244.9195 1477020.757 -145079.92194 
-189643.32111 -2758271.734 -1972756.6799 -393130.58671 -9018838.107 -4921815.1069 5045577.8488 4620710.19 -3511321.9387 
-21608.016431 190706.31211 -935774.74552 512733.5302 -1330684.5789 7028.0684612 -150529.49517 -2454609.5004 -1189714.2299 
-1384437.3699 -20087.501101 20037343.11 -21013777.01 -4192939.5463 6249339.5123 3156055.5266 -1288028.9148 3986954.8747 
-71885.37317 58506.012484 729612.9439 37812.187348 470138.40818 198338.74049 -243606.49454 327340.47677 919163.72993 
149727.80246 89431.815551 -372949.94265 -419044.24175 -52032.979203 -99596.639475 -4938954.9412 -2191263.5362 -1552890.1476 
-11607577.333 -7496928.2101 -4905887.7069 -5261022.6913 40048.337418 163164.05182 -34318.039564 84080.052952 230576.26084 
577829.79309 -112243.547 -149038.46552 152301.39461 196541.96099 14974.342249 792841.20606 -1895418.78 -182508.35582 
117695.24843 -386047.6151 -80936.207893 -130932.15167 -86273.094542 -84228.964396 8929436.851 4268804.2875 1432498.2118 
14818779.714 8398848.9348 5385248.4721 748297.35606 -1453079.5485 -720190.25963 1427739.8425 1713290.1508 92517.069902 
528371.87237 -840961.35563 432247.71237 429806.20608 333344.55643 -796458.86597 -610195.81145 -313154.63214 -1581850.8258 
239662.71213 -467063.94702 2188962.845 -175390.59428 1642823.6635 -4083233.9504 -241164.02895 -68722.289158 911646.96075 
-227431.22918 -415860.39359 1634996.9795 -2771998.6 -1154951.1343 -109683.70371 -329675.95429 340664.64729 -526340.05383 
-722735.8946 -744242.13854 -682513.71184 -27212.297242 -444583.42449 -2603143.2577 -2041213.6339 -25280.874761 366657.02924 
-389729.76884 -1013021.135 141640.87758 -683632.25057 945194.07311 765495.00836 2419690.9874 866238.11662 567921.9293 
229958.57994 -525898.18167 2597.1458663 32144.62293 887111.98943 1251019.3633 917218.91423 767835.66951 451927.85518 
-1622458.5963 -75786.161745 2906304.1616 -119512.36557 266226.97143 724334.01854 -968257.35564 333385.53347 620199.34801 
649367.45799 674880.66161 -621955.312 -1898260.0065 -437239.68062 1432496.3112 144108.52933 -29865.228463 -368696.33572 
-234355.27166 -26653.61414 -12829.980025 -172697.31906 -7636741.6272 6930387.189 7413139.9106 -6950941.043 -28696179.558 
8825238.2799 100862.84747 -8662541.9225 28796703.651 -110890.01991 1575482.5596 -18550.377239 605908.41292 -849535.62745 
-8748.3362015 985177.66236 -483909.70941 -46855.595502 -2656519.7591 -7100850.4901 -339698.88879 -30461.936104 -1607262.5916 
100853.23035 830669.83046 -641768.76749 454319.6416 -1229499.0461 6737933.4288 2785330.8577 -3737309.3985 -15140336.024 
-22903271.772 -31804038.668 -29918939.917 -25248853.969 -34223050.901 -269744.78259 -3542.1252983 -1213888.5368 3894736.99 
-1595100.9423 -11961.754876 -3122379.5792 -4724575.2492 3051880.1097 4776185.334 2707064.9953 3858595.3272 -8493431.111 
443447.20939 1522433.3009 -3879835.6046 -10154777.567 1333514.6242 -2981953.4655 -2364861.3344 7765.4953709 -2471132.4139 
-3822266.309 -739069.00706 -59266.189007 11580653.109 8172282.3957 1501553.6228 4421622.301 3776748.7727 2156286.3429 
9483880.0876 13913843.756 31673893.225 31938812.556 18713338.955 33623786.499 29205151.597 13111129.985 22740196.4 
6227321.5894 24891960.975 36679299.681 38838893.622 32606212.496 -365632.64746 451670.61036 -19006.387788 -1086029.7016 
555896.91464 -10253.604999 362804.85242 -214880.85438 37261.925608 -25108.289072 -127283.68616 -80075.749434 1244296.3004 
2696824.8017 -87166.161712 98088.685274 -159383.93363 -220546.99388 -3135948.3609 -1555682.4948 -74810.072658 -173194.23973 
197462.85082 37933.277667 855866.63302 -1182223.4277 -137252.32491 -5450.0032099 199740.99379 673324.08294 414218.3464 
-51968.739455 107039.00789 -137953.45466 438605.82847 530635.38201 473696.87567 95402.340554 -126674.31927 60375.548041 
-286542.2876 -624173.8197 -36691.338087 50840.902312 6948.6926126 -118147.27664 -510460.19227 -789309.22129 -238326.38806 
-192131.6051 -228656.46016 19191.79178 417057.446 69951.982484 -137372.71612 -4291.270769 26321.131427 -47493.900753 
155436.67208 60805.96256 55804.608252 2076.0203062 -12361.415693 -2737.3243475 1017.5269179 -1752.2893567 -790963.34233 
-975629.75606 -15221.931072 385.47551753 20673.93222 2003.3850451 789197.06912 952232.15214 2800.9551342 -4648.3626751 
-600168.4732 -379851.64568 -11340.746517 70301.464934 -259484.01122 1539.1991858 44026.954682 28316.63559 319.28392284 
689.94672489 355629.02657 608962.81403 268184.29005 -72379.969709 -23979.118196 -45815.792024 -101856.72559 -2777.4948453 
-1152338.0948 2060.9323585 32383.702413 -3601.2545612 -2024.4327662 -889521.67727 -7808741.7452 -526002.16609 -931.10885923 
-21033.513876 424452.11117 6696954.8045 7138.3283122 49114.02346 426.73156572 -2320725.6074 -396392.13837 -28928.560186 
-809532.66718 -44689.624796 -7129.4836756 324280.07723 2273892.3567 -13941513.542 -21990449.411 -6270231.0705 -24007469.52 
-31981788.346 -39067327.014 -42075745.573 -1686425.213 -2526.024942 -9531.0671561 -377.86816937 -6338081.6594 62.561037226 
-1585.6878218 278990.9542 -149.28419278 -11030.653182 -5924.1010402 -1233.7793989 -1230.2974844 -1229.4979027 -1225.2797295 
-304.28588836 325.36777672 10217.130988 -1999536.2856 260704.39139 -26304.470132 -16184.309143 -139744.21152 -63706.916256 
-8622.2264942 -18128.666949 -17849.412841 -17828.260519 -17826.802548 -17891.373888 6161.5371663 -4088.0474588 -690051.12447 
17789.847315 -12759.021978 1461627.0148 134603.59637 865.07928207 1931.8255615 3303.5186594 20014.636702 19890.863626 
19797.805288 -19759.527481 63712.035701 19874.00138 19872.465119 21687.10513 19334.875861 17210.266917 -310.67825832 
5369.6028719 -1484685.654 5381944.742 1557.2225748 -803.85140147 19047821.932 -18860180.507 -81482.218625 16200.954594 
1004393.5418 45779.512389 -3446289.3805 214264.98504 -199245.07173 58389.249438 61794.630336 61852.489893 61857.766218 
61852.03775 61835.98749 66891.75419 -24391.588909 38203.82282 -32959.195179 -1906667.1598 31675.355786 62489.242991 
-5508.8143852 -32768.706678 8840871.3256 -198416.15815 194297.0606 -58851.828574 -62384.369773 -62421.589177 -62425.893359 
-62434.735937 -62488.37981 -62478.81268 -60069.906104 -27155.868011 -18523.895433 -4966205.6464 -578385.24891 3733489.5448 
1097451.8831 1420.8844626 993414.84404 -5107.7017715 -8606734.8418 -4486336.6525 -6442706.1831 2018291.0673 -3048249.6403 
14904242.588 18067165.07 16464807.074 -10117247.494 -3457086.1222 6557784.4609 3691395.6731 -8495964.8258 9097685.6311 
5621216.8046 11415935.291 -3304459.8115 -3249121.7579 10910305.131 -59892.870591 57541.493647 -45791.169043 16551.386636 
70503.636548 1838.5357304 20562.886283 9444.5516983 -5600.6486028 -10801.973671 -12314.637493 -76199.815041 56560.872732 
-22054.509261 56156.257491 -65374.770881 -1287618.2953 -4060871.7637 -12267920.579 1413718.3548 -1157337.1572 1853990.5121 
-1882522.0784 -9112954.9641 -4596067.9756 -9121051.82 -13088645.922 6185536.9671 -75041.509055 -8361313.5851 -3311339.9024 
-37179.501641 7929725.222 2913242.2377 -127278.62817 7480083.734 -1758807.6499 11707091.832 -1265631.8621 -6070699.004 
-8683103.4532 -74634.720813 -2793199.1501 -2948657.9555 -96262.113971 341458.57599 3440993.2613 -415745.52611 -810907.86175 
1035398.3928 -356470.61037 167492.83413 -318634.84768 -750156.74452 -335793.85153 590489.3604 -775463.8605 -99110.769377 
-572478.73084 -568719.90035 547752.13878 211859.24213 -43247.467247 208234.27517 -252913.83734 -34374.746704 23596.356418 
82951.626863 65547.1919 58732.984983 107240.28149 -26779.87722 -27224.771568 98226.896237 66274.236722 66401.335769 
98233.528099 -26666.718552 -26657.750392 98295.04235 66310.20249 66313.585607 98331.583861 -26652.29811 -26651.726295 
98339.225843 66312.384828 66312.584163 98341.842103 -26651.438217 -26652.498477 98341.890025 66328.362183 66311.041906 
98340.934442 -26725.891758 -26672.036778 98327.739265 68099.539026 66901.784725 98153.012442 -28350.253956 -28461.976463 
95064.22696 65794.785121 67521.908377 95705.536588 -24431.808303 -25532.633016 102445.16408 55700.803799 67625.572699 
105432.75051 -23663.887157 -40250.61225 86993.400375 133678.99831 -58208.062897 -45720.85213 -2132.2414464 -16413.148729 
24970.371881 115171.10009 -28798.887992 58553.020924 69123.070221 -34603.594127 18516.505982 85241.070713 4756.093497 
61544.786015 -1747.0054406 -2954.8513687 15282.40841 -11431.800741 -9553.6720687 8633.6542527 -2722.6349642 10901.719208 
-11375.709671 67900.906592 54592.299255 -65798.566843 -19717.09906 19268.483202 -113814.97804 -59849.518073 24028.830654 
-46108.82362 -11855.046621 27382.137244 -77253.792191 -79042.493169 3384.1463299 7741.6774358 13074.228512 30064.141668 
9909814.0502 5956368.5985 10006372.907 5206890.9666 2117160.7773 3833453.7521 -797668.2863 4333.9483594 -5241472.2832 
862080.94436 407730.77229 -1671738.6556 -141863.93839 338969.35672 386726.06856 352312.8838 737116.56064 -581087.01703 
106923.10208 769376.28278 553353.77083 -556715.00625 575183.76906 -208021.77827 -201571.27224 43202.099323 254203.5916 
-25890.148535 32265.090898 -87789.888879 -57002.231224 -66159.652605 -111674.52366 28782.601163 28423.135166 -95969.911478 
-68165.080995 -68071.396721 -95682.552586 28356.998886 28361.445165 -95711.79744 -68102.33815 -68099.525044 -95741.565652 
28351.193496 28351.457297 -95747.49741 -68101.263921 -68100.868746 -95749.651772 28349.242975 28350.498101 -95750.446547 
-68103.388868 -68084.533456 -95752.709116 28324.62596 28271.329038 -95769.957696 -67524.768169 -66326.711439 -95956.864399 
26456.931161 26645.831019 -99093.758149 -66964.31138 -68679.777986 -98741.63016 28105.753177 27348.060888 -96799.359715 
-66061.655828 -52797.634024 -99496.905753 -5184.170378 -46871.675332 -78223.328187 -137830.96782 -7639051.8518 -20166110.536 
308738.26913 13790458.086 18393582.005 14775618.47 2882295.2186 -10312399.605 970.78205168 -49958.281075 -22733.910135 
587.60958588 -31277.682079 -11569.698419 -9688.052517 -8147.3332633 66515.29324 -1022.7483468 -71640.438901 166280.49633 
-87238.719647 33031.913423 78663.272929 -186600.70039 -83968.228106 -374.43730672 83347.515015 -42792.386417 73859.739027 
969.58708542 -75538.193196 37312.857962 -3934153.9085 -6348250.5696 -17311592.776 9274031.6997 9541500.3077 -1361946.2879 
-1295658.6904 7951437.3877 -13452400.993 -28730.073438 27923.569552 92053.408314 -16935.447029 -1748.3218681 17051.42164 
-73031.248034 -135739.7906 134738.0823 -72676.861248 69283.870108 -71733.472574 63939.673675 -19043.441169 174525.62303 
-1215978.8915 759097.70604 -1062751.7321 865384.93636 -83055.556132 85386.185393 -708.06770804 2544.860641 -62924.577239 
-10269.274846 61775.718336 15160.845585 -9423.5229238 95708.02055 -682.8368402 -107221.21131 4480.6758753 -74856.484956 
-27245.105072 42879.039731 -26926.166482 29101.663335 21784.422986 -24738.162333 15591.518331 -13231.013426 -84905.32991 
83639.849814 -38545.418122 -84679.355468 -213.8521935 83448.076921 37177.107662 -84679.315194 83452.96639 -38501.417099 
-84669.909741 -214.88310011 83445.495542 37136.735474 -84670.685929 83446.860902 -38498.70074 -84669.70515 -212.69893321 
83446.258299 37134.558976 -84669.435263 83447.102083 -38497.598692 -84676.730175 -371.96466434 83436.322422 37134.746157 
-84314.354492 83794.238845 -40639.874985 83750.569887 -84311.41794 589.80650611 34967.229699 -80975.209599 83139.987792 
-35200.894843 83893.373768 -84226.396861 40691.742846 69639.169869 -7419.7828284 146407.92434 -86288.981369 77010.541462 
-497.6169922 -4417677.1434 14643932.517 -12134790.961 550704.41777 35303.973263 881440.66505 390029.24614 -987897.03548 
144871.97559 73413.231987 189936.10035 -230437.99431 99467.879707 -86767.18342 90232.368191 -89913.909751 89991.195919 
-89949.655388 89964.323563 -89956.237642 89968.106093 -89934.891764 89994.397689 -89372.456027 90453.50355 -89600.802991 
93158.905855 -83533.151678 74236.297429 -287980.38587 -1055119.2259 -366773.1516 90958.017131 -71479.9769 111952.79753 
4276.0700162 1125623.4756 654647.98268 -910218.8587 5426520.6227 1923490.8178 815742.69394 1414137.9772 506633.77454 
-3021471.2394 -216314.17762 302308.39422 1425754.5032 448382.18415 -247027.45569 521401.5104 -470224.88191 98242.135819 
-556941.22517 125340.45462 -401085.39093 -66036.547024 -319539.2033 175814.75832 252919.91773 76255.44021 124255.87578 
84479.940663 206694.78313 54508.783437 -34788.824234 89872.225089 87660.959304 14192.125614 205926.01624 206277.27618 
1398.6538169 86505.73339 86461.721933 -13.899070503 205850.94383 205844.13926 60.950414883 86503.482456 86502.102386 
22.087239262 205843.9782 205842.96167 6.8856336707 86502.969844 86501.713633 3.9327193764 205849.23199 205846.14613 
5.2527226117 86517.897402 86516.995896 17.359067084 205791.29167 205813.89413 43.051619553 86364.464648 86818.35638 
447.07968347 207278.74744 206928.34367 -952.3648148 88954.725962 88197.049176 333.15907276 208197.37504 207238.56981 
4045.8120854 82955.659299 91305.592034 2517.1255013 228238.05545 205084.89571 6368.8615557 -69522.825126 -930015.06094 
-1902861.62 -3578982.8705 -765352.06847 65651.542377 169629.7778 -313912.01352 -277043.34468 553294.96373 392549.55678 
-295408.68744 44121.926545 170816.36973 454199.95415 -79816.626195 -699551.84404 -80858.881505 -7200.3843949 -73178.258644 
-200875.0597 -209529.89484 -86767.666147 -86582.003171 -205974.53688 -205774.09442 -86491.32935 -86485.824824 -205838.49051 
-205837.64998 -86497.287143 -86496.622986 -205839.55136 -205838.58851 -86494.712888 -86490.687129 -205828.54479 -205811.70321 
-86431.33229 -86451.440533 -205511.19647 -205609.67063 -88090.828045 -87490.504428 -206621.31322 -206585.98918 -84215.765355 
-85103.099862 -204371.92821 -199732.94031 -71458.547385 -2446159.7748 -2717.0468891 -662205.92908 -17189.765639 -3857.3435763 
-879.64528204 544.16886829 1193.7381448 -16141.068408 1222.0341003 1227.8310611 1223.3509344 1195.3529457 -310.12154635 
-2500.4746858 13614.817445 -6861.8766495 3677675.9045 -9938.4860998 -2115606.6478 17856.723412 13177.472752 19566.052608 
-36086.4586 6595.4988112 -18617.742071 17771.814785 17818.432859 17824.34525 17817.49169 296003.88758 -315750.92797 
28732.947033 -33511.970775 10767.931632 -15023.688252 -15449.664304 -19845.987329 -19869.610299 -19874.41991 -19883.906235 
317236.09089 -55995.433615 32944.871185 -19871.176841 20138.008495 7975.1206759 -14868.380101 -785093.37188 4966436.5161 
-5046538.7379 -1499.4504846 -10620723.931 -3418.3169398 9264859.4934 5025.5095273 -16476.442713 7292.0183801 -17893.078304 
1663391.0622 -6919.0896701 -318990.47235 -115482.08345 -51837.803612 -72407.484571 -61873.738681 -61861.044281 -61860.258709 
-61783.819329 -62478.297025 -60923.59163 -16848.38108 -1800356.3902 277051.09756 -404039.9302 124808.36862 59127.575061 
70696.115264 62738.756748 62433.35717 62425.391978 62423.862596 62497.06305 61716.864578 62877.738006 -62057.200312 
36360.372006 18524.751573 -1802.8420453 -44832.502808 29143.606408 27926.731142 4702797.5262 14398845.537 7920993.9541 
-6069243.2222 -16480944.478 1360404.2955 -3362688.4678 7877.8502619 5443.469038 21313.868231 7666.3642567 8788221.2632 
5357700.2189 -986869.22697 -3593008.3865 -4343978.7106 15378883.377 2508378.8266 1860069.6264 11665864.659 6730766.3322 
1812692.6532 -7256038.2443 -1663693.9236 3522753.2581 -2162833.9095 -10419569.849 63658.752258 -79282.292116 -13276.390713 
35815.186095 29473.505253 -2936397.7947 -7443696.1007 5221058.199 1451546.2403 2023967.6055 -3905427.6268 -17780205.827 
58183.63119 -61212.845867 44414.973552 3236.9811982 -7038.3530971 -10539.675305 14017.245562 8466.8797212 22836.259333 
6273649.3006 2393179.3123 15749565.818 3565714.974 -609589.85004 325238.30191 2453437.6203 9176064.4492 4996318.2704 
10541629.783 12569312.117 -11902547.797 -11759687.528 7287241.5391 -6717630.7064 -3627177.507 -7927376.7907 -3332958.0747 
-1170338.6642 -1921594.8165 -5681303.6614 -9787875.981 599858.27033 -2894328.3356 -1120992.3679 -534310.38077 -1549299.8093 
2545163.7934 -239800.51973 273527.98239 503036.71242 -257852.16273 -710590.88096 415059.85423 -204322.02561 -147489.01959 
-436897.96722 -1354695.6813 -184554.611 469736.47538 -486993.42355 387231.46285 -519457.03309 34068.350812 235536.00181 
178295.43344 74073.977196 90462.592698 17581.49288 -27127.995173 -26937.463611 90831.226111 68116.457094 67890.948251 
98634.733668 -28312.631929 -28372.701916 96030.808978 68106.146751 68099.871779 95740.724626 -28348.481772 -28348.57929 
95754.693315 68100.869652 68099.83385 95750.868234 -28350.727842 -28351.164039 95749.444758 68099.107628 68099.751969 
95748.552994 -28349.00758 -28355.418149 95744.828239 68097.52101 68132.872911 95764.564842 -28509.855952 -28427.155375 
95430.961503 66998.068244 68027.394885 94959.539567 -26820.981726 -26986.07908 98128.845628 71050.841239 67821.810596 
98644.330276 -28412.67545 -28066.716646 90903.039704 -60042.194132 94803.020299 54425.410519 23900.092969 26985.614935 
23912.913458 -3539874.3454 -14307066.712 -26736.322175 5133134.1716 3792893.1928 13334662.41 733548.75467 -64018.766843 
624726.82873 1672485.3697 672831.16213 -2876061.3999 -313738.91019 176413.78921 -315486.0851 685096.63555 274163.22803 
-525217.22819 153258.98129 194186.87652 449401.41616 198009.49316 1346246.6898 -454226.75253 -366548.11753 485970.82181 
523068.27562 -238059.07641 -35233.254498 -180937.54658 -89067.226448 -71654.934594 -22798.838622 24785.799467 25186.4342 
-95543.856362 -66078.247199 -66271.383591 -101932.87347 26676.132273 26598.424154 -98608.159385 -66316.086759 -66321.981336 
-98348.117736 26648.820836 26647.121642 -98352.526299 -66312.726508 -66313.807987 -98346.335736 26650.605343 26650.763967 
-98344.587176 -66313.584637 -66314.7044 -98344.156174 26647.64822 26653.291526 -98347.142285 -66278.147003 -66317.848689 
-98326.055894 26590.776544 26503.58996 -98652.839744 -66326.694631 -67525.189879 -99094.650909 28285.629079 28314.72249 
-95588.479316 -71287.388996 -72962.571207 -93698.019365 32234.783345 31645.945809 -85123.0725 -66984.729396 116920.32696 
-67276.495479 -117156.09035 -53253.461281 1622.3054218 6844.0295112 -12802.316919 -1626.2697272 -1374.5536177 -10955.491495 
14490.291609 9107.8293897 123352.78596 -4262.2302783 -20056.526289 -17723.460048 12262.07097 -31883.754313 -3580.9756413 
-82644.524292 -29243.093306 22350.307886 -7994.2354278 -29993.082524 -2553.7556137 -84794.188321 -30041.104514 -6768.0620335 
10845.112996 23669.693805 7993.4356804 -80875.778641 30248.700175 12944.717016 34737.218546 129830.02615 -20217.653261 
30607.36934 46371.54341 -3422.7163344 36280.692375 78053.240697 4909.824239 65214.411425 -6408.1077247 -25058.658757 
8296.4952521 5646661.5584 8928606.7769 30520697.586 -5847548.1995 -32518678.727 10186609.688 2265313.2422 -9970133.3323 
-3355.5867536 -68871.31144 -30002.405799 -25134.025535 -6414.6221204 -3566.4720131 882.6418439 -10980.178046 -484602.5696 
-115461.41887 582763.932 509717.9122 -2132952.6209 -2330176.3847 -1407489.0744 -2230110.7382 115816.24369 -10085.062856 
-150053.72782 -5266.874425 2819.4076412 -75583.464457 -56676.094646 -1277.1968486 -18947.383637 -241230.81727 -208.53483427 
-46767.981708 48220.918198 256017.25713 -68127.934732 -179.40194413 65574.470591 44899.341406 118560.44186 -117287.71131 
-37184.296782 -78196.28138 370.88927963 78395.089962 41824.812708 -95185.317137 94418.77109 -51774.851441 -82289.386921 
82572.026817 38534.071105 -83588.7029 211.78828869 84737.322072 -37034.015135 -76721.487878 -52279.38003 -10016.533129 
46594.167748 -88865.088336 25206.307079 -49780.305405 -83436.74128 84636.710336 38483.673965 -83449.482885 213.78041434 
84664.593264 -37124.853035 -83445.4501 84665.1101 38497.302798 -83448.038762 213.77956771 84668.232922 -37134.019483 
-83449.555688 84666.263634 38496.192072 -83456.64452 210.16382639 84660.688068 -37136.856184 -83902.44744 537.72890584 
84232.561588 38571.479797 -83480.313887 84636.753643 -37063.741482 -84327.058432 83814.714332 34924.588686 -461.84036715 
84475.881038 -84223.892436 -40684.689398 84535.277505 -86889.858793 -48194.786246 -107655.97373 -8661.848851 104034.96889 
59213.663686 -88507.821515 89864.132586 -20372.652032 -53051.163444 -44433.499451 -17252.295225 76178.736881 -52209.303075 
82747.746159 86653.622544 -94015.24896 107439.9763 -13013.669635 31080.575604 -8770597.5009 17760180.534 16764523.605 
-5988952.6233 4355860.2324 272360.87906 -23202.982506 32896.516872 37410.895387 -4129.2660679 4470.0148797 40623.618758 
3053569.6495 -3749107.0077 777862.32037 150088.45867 -48155.483601 4845890.6338 5115623.4764 -5006959.0762 -4459571.7008 
8937209.5215 -3643686.8736 -1547852.0422 1207266.8113 -1568147.0837 3458216.6373 1144889.0387 672076.48467 4243100.0866 
8835276.0427 1055779.9024 180625.16111 -2058064.5471 -3409168.0303 -13348425.882 -7789290.3974 -89905.030871 -409480.9535 
103230.70396 1468913.4903 -155070.54277 -91634.263624 297866.24002 -67765.574466 231973.86705 -96569.946034 88061.5634 
89842.689013 -89805.663706 89804.798144 -89801.68725 89807.033623 -89795.515654 89829.483243 -89764.459168 90395.607033 
-89404.057773 89435.932823 -93814.262673 82226.795961 -104362.39775 -185429.96758 -1856871.8732 -127756.00386 -147532.39835 
54027.543706 -372405.23956 -1577599.088 -527147.99368 1261825.2741 -2453818.4892 -3241593.4912 -1908770.9846 -218560.16181 
-917042.49072 3263000.4248 -266116.60273 248979.81966 -816915.47874 332771.66754 -429988.17701 -389610.94073 -93793.197242 
479512.95782 591294.71872 422449.96162 -131329.55501 77475.160056 -198803.39278 344408.61973 -246418.05887 -116205.53133 
-78906.897123 -81343.140837 -51911.560188 -204633.10045 36827.426991 -89162.253628 -90491.264252 -14724.465798 -207157.40422 
-206819.8011 -330.47308787 -87881.949331 -87943.862733 168.13287033 -206706.79465 -206725.4235 -4.2702836313 -87984.940492 
-87990.56464 -3.4479605441 -206728.25456 -206730.03278 1.5575319215 -87991.217495 -87990.622853 2.496509369 -206726.8904 
-206724.48466 5.0689028482 -87976.757895 -87977.486344 17.865434393 -206758.67658 -206785.52229 45.336102354 -87678.510845 
-88159.02306 455.60916857 -205635.02447 -205554.45661 -967.94352445 -87246.623262 -86882.255462 -88.823780632 -209361.65359 
-205868.50593 -922.1145907 -81139.86154 -84711.172858 883.00566554 -189847.78482 -159848.04475 -3402.9240886 41427.009705 
27767.884226 3744185.0693 2761143.1016 -377543.41289 396031.74262 691571.52079 445086.04762 114582.89308 -529633.05742 
317108.77673 292005.63537 -384333.25638 -168310.8541 -47378.682672 74860.156019 -432375.39239 85077.399376 696661.07567 
72608.044797 7918.7899544 211089.65139 202329.51897 88279.088004 88435.014229 206708.95431 206953.13682 87998.733566 
88017.470452 206734.30166 206739.10806 87996.748342 87998.216681 206734.47692 206734.31229 88002.376586 87998.893701 
206759.493 206744.74233 88035.780126 88061.638796 206935.5308 207054.65776 86831.313882 86314.506311 205606.67956 
206133.36561 86808.981345 86646.637827 184497.90908 201809.35997 54450.917921 382.11816248 -5936.375473 -2732.9796028 
-14603.785753 11800.214104 -113084.47948 5372.6394802 76667.581069 -5647.427872 -62546.118682 -58044.311429 -8986.0072871 
108801.42673 -123067.18563 -76907.296771 19509.221455 -91328.306203 -42127.90944 -13094.88691 -79012.690895 -27207.560107 
-7208.1963568 -54446.886199 -1791.9635516 -16529.978053 -6041.4869684 -12492.075863 62446.405279 85115.497008 119521.71379 
40958.6015 94251.263407 33483.530608 81899.04128 45674.865671 776.67271789 872.31940486 -3164.0783792 -2102.5594595 
-370.27651928 5127.3107175 -1803.6937906 -4713.2122307 -1317.9419063 -848.62424073 -7417.8273958 -2072.7667309 -1149.8135388 
1713.8456936 -10982.84752 3789.7854635 -2270.0861725 -14005.21792 12465.427203 1798.2008137 -834.01837854 -5919.322204 
12722.327377 -8593.4716546 14668.324221 12501.734314 -9623.87516 351.45647643 -3029.1893674 -1598.3781498 -5155.6610569 
97326.617481 -125632.44542 10380.011334 -4453.4942872 71689.832299 90493.472896 -82203.860198 75564.890106 125769.30578 
-13711.192062 46321.793024 91177.225834 10767.736223 13879.918328 86847.016196 4670.4156046 -5806.9877547 69831.854604 
8192.4007004 -6180.2797644 -2442.6721248 -60872.203944 -134415.70111 -94132.541494 -97506.859253 -38722.457525 -78186.245671 
-31539.754509 -70111.04855 173102.88336 6266.395159 -31570.376487 -119979.12578 -40207.841889 -35423.504192 -37254.365145 
49617.748808 5267546.3099 4720807.1208 305684.75671 2047518.4862 1607836.0583 -5911674.9907 -5156901.3809 -1667622.8737 
-2009136.7957 -878629.92942 210513.81375 -299175.54763 904246.71906 -41135.329952 -24562.290749 -488715.16169 364945.06878 
-175494.76747 -1660272.8744 1582464.797 1338257.9747 348626.03181 -334513.92396 24932.971877 1572599.0674 -1655308.9515 
-142039.52326 -174660.69417 169600.65663 -297484.81558 32881.049885 105.21575004 57203.987256 -134359.72716 16453.767567 
392130.54836 6438.0147575 -27064.473926 -28270.781285 743025.93131 -789537.3283 -5354.7505145 124074.22352 -425921.77048 
347683.0184 -245914.23297 7185.8709253 7020266.4441 14598393.982 -876279.14114 15554.18083 -14451140.235 -6791101.2206 
771939.79705 150236.9735 254210.3426 -2373032.6387 -123190.30465 263711.68968 -162375.81488 -153888.49159 -323622.26475 
-1173892.9306 -1131075.5364 924099.05259 911283.22688 130042.30573 -65509.988127 846738.86397 -10294892.144 -16889.646917 
-126616.22123 -17344175.964 59270.884216 -212891.13412 14709442.894 21748720.033 128103.19449 952482.89015 790184.31977 
-49809.276392 11794362.428 13020.694249 16434.34946 -123817.52477 96098.276924 -143236.24329 -27262.47727 90086.80058 
94781.326406 314178.90913 95306.617507 522298.08448 144189.33324 -377546.97893 -364830.66591 -163046.98841 -53442.694189 
157543.56811 -246329.05734 658322.48802 -691613.97403 -166461.3187 -193962.37561 232874.90595 -8501065.2797 7828176.3777 
603188.43968 -407152.96977 -23253.595045 -6517523.3519 -10324534.572 1098.3108035 6592720.3958 10261383.892 6600491.6184 
-6585407.8283 -56073.088499 -99431.201421 99909.020986 -131705.78367 -360430.32983 271521.01286 1007600.0172 1710170.7684 
-658265.72956 -2460.9562329 -1727103.4121 -1022391.8803 657526.62039 703792.87541 -13104794.927 -6608298.4151 6712814.9869 
139206.24529 -6295589.0859 5972936.8325 -403705.07991 375569.27161 -30817.148231 -515694.26378 -268367.60682 -160799.85147 
264582.06323 12327.640718 255633.11619 -21274.165861 -14316.731308 9813.6335079 -249846.21342 -2176129.4468 -1441139.854 
2334087.224 1498245.0519 91766.137232 439442.56093 -446128.71297 -14814124.472 -12637572.705 1637370.3353 -8611195.6616 
-3357581.7896 8883429.1431 9007072.6559 -2181533.6766 -319700.47547 -3429934.5996 -100393.09574 -13389.964187 3445620.4371 
14131242.071 269304.44361 -143966.57933 -111706.81843 3371305.9419 197225.44444 -3620464.5695 32565.50259 185940.92067 
15223.62181 492645.57482 417708.86079 -45340.212241 332.74805473 -47917.802066 1947984.9117 -1422635.927 -196780.60677 
-440056.95006 -1827751.8146 -2168881.6875 278941.1649 395413.06322 764858.63069 -732758.93299 -4225685.0615 -130245.22262 
-210212.51054 4568041.8577 1200927.4749 -152280.6266 1327809.0139 -91.450679369 324127.13829 -1329507.2964 161706.69963 
-333497.99728 -28154.056391 304659.60961 160546.09679 -10333.266467 1044133.2174 -1075408.3198 97280.859484 -126849.15741 
-4705.9661275 -1022377.2789 1214290.4068 1408.9608924 -211179.39203 30728.812327 -287370.92924 2925125.1099 304170.12695 
85381.695964 -229198.53611 2961152.3104 -2455887.0422 -3266007.3477 2450534.9645 3195383.5909 -8530369.6143 12436074.376 
280307.87722 4310.4076312 -236481.74861 355666.24572 396111.37622 675629.73067 236189.77936 75790.100501 -146952.39155 
-113610.79986 33577.911862 158035.71421 55613.859892 -2273.8324763 2233.6831408 -1509.3915018 5971785.5775 5556547.0327 
2357009.6149 3155045.0395 -5765256.2709 138656.14171 783830.27414 -830127.9598 -30549.04193 1399784.6137 -2176968.0914 
-5415444.5824 5948667.0797 -8745147.2459 -2498895.6645 -947497.4821 -3441264.0289 7768532.0697 -8071367.5953 -138932.0953 
-124209.74537 434387.69098 2991.2486322 396585.06207 -194166.82713 -50129.995426 37310.250243 300142.87444 59207.498429 
64246.528815 -10130.945219 -2552.5396986 52835.720736 115231.08155 22942.229916 824368.27949 -388131.92256 -51807.887404 
298965.09764 -887563.68674 250757.94089 -215000.81818 7427122.6758 -6905642.2665 -8602678.6414 692.68832008 -343298.17613 
-15887553.278 -2590990.6309 12214982.078 2301703.0944 17522162.685 3561.6179367 -4758.9212243 -6356.8497725 -8673.0148974 
303397.43226 -7417180.2102 -2898225.7353 1770608.4379 8842989.0431 -11903513.612 -1600.8060247 -2990.1750951 -141.10768128 
-5518.1032409 1861.8472302 -6897017.5685 -4526638.3805 1051.9786644 13.364548005 2416.8069265 2249.1870851 -1668.6162316 
-4154.1870282 -3541.1200555 -5151.5437121 291194.05969 14909.880942 -56005.405699 47099.856646 8446404.3235 4391084.1763 
-2848163.9436 -19827.302253 -618744.50728 -5691435.2547 -26412.361592 -5515434.2419 156.48556132 -7470.1594423 -2884211.6681 
-20935.118083 2913221.7491 -242985.93053 1560.3044994 -3434.6590511 3743.6279645 13013.744454 -11532.076948 -14295.351883 
221246.11519 33142.934389 -33453.249937 54852.833651 -3634.1160703 -56773.089814 -23345.768364 -372.21834657 -6311527.9714 
1542.0951272 5493292.9958 -32914.799884 271010.21098 245088.80853 -256988.99376 -226822.06838 4802.8423051 54462.1431 
-285887.49528 16613.787352 71030.302391 -90568.287771 -29810.511067 -32405.664913 2328.4875369 149770.02889 -46310.654568 
-337827.92588 1381409.8082 380204.42119 -1225209.7271 6435.449003 -1359.3472487 6199.8822137 7561.573791 7431.7329131 
-561510.32484 -522537.04656 463851.67135 561304.10141 -3200.0443089 167010.4591 -209409.72908 6803414.4405 1807033.4625 
-225963.95363 -520009.15958 -185958.21994 -256529.77477 28935.841772 -6947.5823187 -306947.6403 338922.05966 9286781.3951 
7919082.3298 -7351081.1617 3687691.8376 -12330709.53 54284.173475 20854.084965 -38810.069534 -10572.091063 10414.207664 
16991.177808 47873.506028 -49251.811718 -1065.5762389 -19900.94266 -56118.248349 -10523.446348 22230.332593 30488.330135 
105241.39109 -3476125.7384 -4091456.8129 -5755971.7266 -3796.9838255 261877.30357 3584554.4171 -3661987.2966 -32105.668221 
-71699.684082 46637.046842 6691.6997388 9266.9153694 7812.7866754 -7552.5654231 6780.2077896 7334.1533547 -2595453.3259 
-2651761.899 2952966.7367 3346923.4735 2595103.879 -564.58473073 -8150.6046827 -933.31249418 -26132.339029 -31308.392591 
-6522512.9464 8731.4623321 -16498.303168 -69706.322646 10679.625741 16137.748721 67828.057616 -26819.616673 375.60144925 
6503956.2029 -2296124.2023 -2306841.0984 -8827989.7553 -73026.583322 -23304.582772 73087.5742 242.30431158 23628.243879 
-72974.346535 -23513.780527 73012.237478 6.2990417828 23539.203423 -23482.335026 -72892.029273 73003.645944 23513.796997 
16.944678826 -23518.927813 -73001.247878 23522.479323 -0.18252849264 73005.141505 -23516.015589 -73001.284013 23523.92967 
2.2464755076 -23519.691683 23522.863534 0.36596813102 -23439.549409 23550.435092 33.626256543 -23513.875605 -2.153332633 
23521.736545 1231837.8399 1407894.8569 1865810.9721 3391474.1385 77836.518688 41944.290621 -28342.288307 -13383.540937 
-2038.2319064 534528.16933 192948.22864 222517.25695 653265.98507 -153221.99138 -24966.461035 424.08344473 24204.224796 
-23083.438464 23392.090072 73807.302129 -158.82444341 -1507562.6525 -105969.49903 859351.46365 -1593051.749 96730.108818 
330827.29737 549155.14485 67252.187 -219617.72553 -233656.61362 86890.031283 113592.98955 85293.950248 36634.751706 
-2063.6723127 2278.7061672 -16903.105526 907.46725332 76154.304277 24445.828962 -69801.44591 22222.060241 7408.3769111 
26830.27107 -24946.98965 24448.279662 -814.14577869 73495.934017 -492342.42338 -273769.02951 7197.3780002 -73440.735418 
-23214.200683 88.803150173 25190.277108 405381.06775 -920373.56064 -2340383.7592 -3991914.4218 993504.09206 185479.83055 
982121.62423 -395118.0904 25219.236122 73818.742328 149.43005357 -23142.334006 -73347.407548 -314686.54609 61295.019624 
-459022.49589 24880.476571 74169.917335 -24895.222873 -7.6726385567 -74196.427667 491856.00388 -70492.981457 -3882.3959952 
299669.31688 239401.728 24883.07075 74190.059324 -24883.092867 -0.94459515104 -74190.448425 24880.066339 -2.9931752748 
-24883.823279 -77108.355214 -38963.245709 1936.0564824 15155.701275 30190.811874 320664.47408 -35659.887996 461047.49752 
-61211.293116 -215823.12537 -541466.2636 -189449.5519 147198.93296 -641399.8862 24884.233666 74193.740441 -0.37097679992 
-24881.04505 24753.80945 74450.727211 -24978.977704 -213.34849058 -74262.213483 27220.753984 -659.52128545 -25705.506938 
24822.421782 -38.31562966 -24903.813671 24890.75295 -1.2128738409 -74188.582038 -24881.224063 -256909.0664 -593731.03903 
-114267.83062 74309.088366 25332.181781 -144.78205026 -25001.302657 -81794.888194 -2160.1767523 5700.5849011 24922.347541 
19.268747243 -24884.406947 221908.0597 -115917.5423 -90209.662981 -25240.162559 -215.61628138 25406.571658 23265.666618 
-22903.614401 96.254584233 -74068.544606 23574.758909 -27478.518576 553.56416162 6841228.2399 3924000.3923 -18228.789574 
22764.767544 -43930.304157 -24263.067702 41932.528987 -2645.6174326 -13647.002426 7769.862331 -19461.282642 23567.541592 
44665.272439 54494.878232 -3466.2909857 -25550.819005 -44967.754999 -27566.613302 12617.060635 -225190.07019 -1196444.291 
-537516.28876 15342.848632 11039.807965 1094.858691 3762245.9206 511782.30601 4406075.0248 6435676.7821 66353.961074 
-4858800.2004 -1771923.2766 11147733.798 6366593.7825 -6972282.6864 42834.548125 29116.192483 -22401.533595 -21213.608781 
667676.33032 4027.7991108 7878.5301171 -37350.015706 22275.177778 -32276.024789 28196.98322 10481.595003 -5532.231606 
-17029.435119 13861.598785 8092.0828919 2431.7411249 -1649688.5285 -2150.9043639 -14002.563917 8641969.3606 3193999.5788 
-2870905.7947 -2116854.426 14949.995069 13669.676267 18629.501829 -220608.2173 -92408.641318 -330136.4615 -299466.59726 
78112.141209 13417.531505 -3488.422739 -266064.80116 867591.32989 -6042876.8393 -6117965.7743 469230.62282 3410.1225723 
1402.5818853 -53791.388711 -62653.523161 4375.8233168 2089224.9216 1132363.2878 -2269882.3364 34900.089881 -850.02105309 
16836.735017 -5589712.6753 -2554562.0265 5710743.8613 2727343.6784 -65160.477173 -11307.145174 1819615.9185 6170.7407858 
-1810077.5174 -12517.081524 8184.8255808 57161.636694 -2007.1333025 -300392.04202 -163413.21465 360890.71819 63452.310317 
229360.05964 -65562.956119 -16254.034399 773057.58444 875403.05069 15556.750979 65325.392192 -9763.7247574 -34502.485876 
-65000.320131 -16244.895674 65316.142463 15674.955 14103.139415 63815.173839 -16611.54876 -65588.496961 -16242.947342 
-64997.462488 -65020.934516 -16261.457182 65007.222886 16234.202613 64999.367704 16241.956564 173572.50896 206598.08288 
64993.260146 16235.936596 380.45964966 134827.27651 64943.023871 16154.016723 -89204.248619 -292645.94531 -16202.434352 
-65086.516287 67287.819862 16092.443636 67187.152538 16125.562231 -67211.128966 -16025.595111 -67278.423418 -16087.336198 
16093.771374 67289.1612 16108.908667 67314.012036 16510.094613 67716.051971 -67280.165233 -16103.814545 -67285.410648 
-16092.879305 43841.769639 10622.459101 34904.651327 -65668.651693 -15064.589726 -1147506.0949 -291844.52529 -136391.09297 
-2345.0070727 89691.437528 291213.73294 -168841.64512 -220572.12343 -66994.060231 -16682.974073 15081.8965 67307.821137 
-338167.50008 -49819.337643 -66834.950647 -16615.133292 -58061.125361 -325.98297772 300614.76328 159422.82354 67501.501704 
16820.588639 -1230354.4917 -1707207.6066 373535.86414 -9115.98193 -124513.1527 -28166.752803 -364039.93727 23768.457192 
6167352.6143 -47280.9282 -18063.556271 -31290.23431 -26337.423655 -12528.360851 -4655.791565 -40377.680797 985734.54001 
848734.55702 -761764.3828 -812171.16481 3524592.6382 1521551.7597 -4127686.0784 -1505728.4658 -6431775.3386 -1599183.7139 
3552702.8179 4559478.0094 -28049.14437 134663.00435 632160.97513 -5482100.1601 -6613841.0093 -23659.993937 521327.75952 
-165694.13527 1447948.4513 -10057160.793 1352367.6142 3522380.5774 2292734.8076 3517851.9973 66483.133031 11044.96477 
28118.446434 -26575.895918 -6614.1518918 17557.906303 79989.31201 -11128.955763 -61896.90364 2228597.2904 -3184856.8661 
-464.98417958 15660.083839 15065.428956 -46033.90701 -28025.324901 -2024457.9786 10540873.602 -14826480.429 -7029.0515387 
650.51054081 1823.3317671 10530.165258 -278664.19366 -2232.8213938 -739.53973256 270999.34697 251727.32507 -28.087324508 
5055.9344322 -29.153058876 -5080.3233484 -5.1231053001 -5.4295803904 -5059.1543919 -1.3714491577 5058.7869762 2.0258248155 
-5057.1387481 -3.6866494607 -5047.8493275 8.1622093644 -2.3554353736 5056.5674715 -0.80046855499 -1.0115358674 -0.038424924194 
-9.4149518582 5069.0016913 13.684243511 -37.877507965 220.11585381 -5092.7703489 -51082.584771 -1451.5227977 45472.147484 
47190.586916 9510.8503091 638.94343406 1301.6195598 -6564.0800637 -151598.77042 -135730.6646 286249.64074 5782.1530127 
681.88939542 -339.53734558 255.07762674 5757.6163638 31.911333893 -5634.0946677 -3813.561631 -93653.260462 70154.413913 
-27093.036609 1847.2523628 -13167.663309 90003.359009 -71822.00192 46867.205796 29670.169941 -8372.7277226 14693.545304 
603835.73539 34208.399262 -747132.7161 -191372.39116 -582958.4261 293776.06296 1057555.4376 1470.0756188 -3629.0700759 
-2684.6982713 -307250.51837 -78692.059152 74344.467979 -46290.375993 4740.9408326 -90345.687826 -5494.4069129 144091.29537 
1138.1232455 1197.7838421 -4585.1884114 85237.316341 1272.4172913 -4535.3804989 -5286.9499645 5267.350437 -24.102674614 
-5307.2961159 5270.8582723 -27.624150043 -11.772654907 -5290.4750453 -1.5252905303 5285.1665584 -5287.40711 -0.98773761563 
5284.5508132 5276.1689404 -286.50849681 -3.9797175856 -4.5350761388 -48327.838446 123877.8768 -2058.49089 -323.77838037 
4312.768403 -406.71135688 -5332.2426764 -2700.2665907 -2823.80916 -9508.8572351 5005.3938143 1379.8349762 1944399.9172 
1735114.7339 4153195.8096 -4120166.9842 1913.9407157 324997.70711 1796072.6975 -5053974.4185 915151.68376 651987.66431 
-2635235.6642 27519.832464 1533813.2849 140587.76597 -10178.318062 -45524.65888 3208.4281477 -66511.90944 -71216.505646 
-348541.40641 -1251.3325009 4455.5527398 -5225808.8811 -9885.1744059 -4437.7390466 -8810.4275379 -3064688.8292 -2632698.794 
278.32134626 -371092.5174 3435.0273112 45292.087885 -28279.084476 21483.899135 -4420923.849 1849385.7295 18523.057279 
5256.2860076 -61250.863953 2936595.8497 5146579.8608 -8176992.6015 7141129.3195 -4747460.5642 -201328.77084 1578946.7551 
4165538.8868 -133795.68492 -1916417.4103 1644657.3914 23885.833795 -7604521.7089 -4593766.597 -999973.64518 8259818.4228 
-5151145.7847 2837002.4972 15408.346125 121419.66125 -8247495.3105 -2170879.248 1991080.0185 7507937.5353 5375887.891 
6127790.1736 57707.026953 -17315.608656 1704.0255961 -9386477.5964 -485379.62687 486830.20072 -6647563.4466 8071588.1277 
-113514.66399 -1314442.1176 524179.78373 49301.901441 281.48792393 145657.37364 15553.708036 -422458.59853 310844.7501 
-5678859.1331 61621.803203 -2855.4796873 -19669.721378 -411446.9387 
Stress%20yy%20component 1 3803 double
-7172485.4084 -7377546.1501 -1390608.7136 -1258286.1661 55131082.743 53543154.756 -22074328.641 -29540974.987 -29596688.75 
-22635240.791 715264.55445 13537567.582 -8019345.7517 218.42146593 79479584.423 1638804.4138 13238845.435 -7944626.3803 
-1413.75725 79917110.309 -9715601.5739 3351116.8173 14225617.573 -9526912.2924 16113336.685 17379824.726 -5618912.2034 
-1595360.3648 -2986544.9985 76349.570375 116260.49149 79585.326585 -11940138.494 -1395785.3275 -2986044.3168 79553.158021 
-5665432.6522 -5591777.4044 -5527681.4636 -1217002.0669 -1459004.5454 -1342938.4227 -5834355.5737 -3766725.4207 -6871067.7338 
-4633914.2117 -2416392.9797 -5820440.1962 -3715028.0438 -7101997.9522 -4550853.5326 -2407971.8644 71224093.156 55202623.441 
53350465.32 -11951487.311 -9011003.0475 10631209.792 -12118043.432 -12542901.583 338282.59739 59908071.791 -14171343.815 
-9136262.2973 10284336.055 -12466247.129 -12527283.435 298753.8781 57716446.414 -23119783.688 -24900104.28 -27106997.408 
-26994764.802 -23273777.641 244386.04289 -5494065.6062 -11443826.616 -541679.65267 -4755098.1832 -7912510.1096 -14864257.888 
370928.55242 -5404757.7508 -11450565.808 235446.40304 -4544572.7831 -7934641.8862 -14958236.117 -37885943.117 -24538587.501 
-3701284.3366 -29229753.975 -34723389.389 -16648164.025 -501354.94248 -14897752.29 -6073094.1861 15708483.838 -7711873.1347 
-9440387.5279 6547313.1974 16839240.041 3139423.5952 137450.61409 580564.48956 -1073772.1738 7699900.6401 2070990.9149 
444265.96021 175301.64354 -5341946.6226 -9388808.2237 -1009178.9641 412382.295 -93.244554724 -12350460.859 -4565135.8983 
400630.17845 129315.47036 -3737.3853083 15703.776376 -31246.817437 -87621.056215 16140.65128 -54721.402115 35608.724612 
8884904.6455 -21400773.143 16395258.159 -18001125.318 -18415335.783 5224795.5119 -34169291.846 2340952.7713 1288994.7966 
-27369605.146 4268110.8374 31704799.981 -38310481.518 -26248214.789 -5045053.5847 -29987806.261 -34355971.098 -17333296.254 
-326022.53998 -15735201.128 -7901507.8956 17766788.35 -7248852.2258 -12159792.498 9326198.8993 16241646.466 3208760.206 
161127.5898 789911.66879 -1072668.3044 7829965.1476 1642929.2513 270339.5824 -180891.8899 -5130368.7127 -9365866.0009 
-1022197.1927 425231.38742 360.44899774 -12340689.294 -4586502.3562 415616.66446 135439.97363 -14584.027176 -2168.7340004 
-27647.526979 52141.515847 9128.4242358 -54512.722689 63723.099065 8114045.8171 -21469066.862 16322452.613 -17878945.126 
-18968063.466 5291899.9757 -34228349.585 2275714.3481 1260877.2224 -27628154.637 4970226.5752 31441871.568 86760026.626 
92574329.057 92739652.324 -2387990.506 -34547872.949 -24901316.725 -17587696.955 -35612286.624 -34251335.726 -26462994.131 
-18588164.996 -11655588.371 -13853781.226 1887.0760405 -15673507.284 -13102464.941 -38257703.159 -39117538.388 2520292.8502 
-20816695.572 -30297508.102 -39627301.749 -38197937.797 -14676599.313 -18233226.106 -39222775.918 -39325801.017 -5584374.3141 
-32606889.193 -30563203.969 -40847513.912 -38207509.149 -35576103.907 -25864479.065 -17671279.972 -34835354.851 -33534811.235 
-25019839.319 -17696515.388 -3147574.0879 15838101.049 -5596362.5064 10990176.575 20457594.993 -6172335.4069 8789757.0982 
13482605.46 25265990.812 16084293.556 14915969.656 15222545.24 15841839.418 -6498410.2004 -7931874.7435 -7953724.2721 
3540.7852259 -1202.4857096 -1296.990592 -1962519.4693 10208036.099 18567618.35 -9306688.5375 7552590.3874 19007560.131 
23793986.829 26477021.977 24381352.742 15695377.675 26776261.057 26368898.418 31585732.485 -3828973.7275 -2644190.1246 
6060877.6951 153765.57324 3878539.8118 3222032.6076 3732919.0617 1109252.1377 1317622.7533 388411.35058 -411151.41206 
-78859.563153 110561.28899 -108808.67796 108637.90191 -108649.41209 108645.78583 -108645.38102 108645.54788 -108645.09789 
108648.69864 -108685.47134 107126.5023 -107130.39674 108047.94572 -106344.44133 102929.3605 28030.805256 -9202966.661 
9509043.4207 6907227.6103 -470172.72933 5171948.0219 1953305.3038 4471393.9145 2549278.2938 1314535.209 206619.74408 
-29525.454478 6837.6116508 469.23167348 -31.538570297 -4.0358324483 2.8244904433 0.056805748522 -0.87421260553 1.246132312 
-10.150785976 -59.172222892 -577.65610139 229.36900667 -105.58055209 -1372.9924546 -18750.198465 -46722.647979 -186748.63226 
-3030282.0671 -2891106.2678 -2997924.6626 -2893157.3532 -2964921.2498 -2879274.6329 -2965942.7569 -2932599.4019 -3031704.7351 
-2948831.4598 -3028417.1608 -2932019.0086 -2928067.949 -2718812.8165 -1432045.1835 -112682.27293 -2939105.5623 -2127291.3815 
-749583.65067 78679.265295 -63066.022796 12580.189607 141317.70778 13795.615324 79502.000002 53142.839096 83260.695544 
68507.530801 174563.23358 94495.168964 132986.43286 94587.540194 10381.561022 6440844.0459 -4592292.5414 -1577148.8155 
-3978087.2925 -3275307.3278 -3711757.8562 -1111830.4752 -1297391.0723 -373015.0427 407895.27295 80145.862064 -108817.06444 
107090.87314 -106917.61686 106929.77565 -106926.40388 106926.06038 -106925.48551 106925.63974 -106921.59245 106878.83663 
-108486.35352 108726.27914 -109070.02224 104745.07217 -95611.857249 121253.73513 17346831.284 -17034929.107 1287179.8525 
50041.454939 -5255230.9454 -1933168.0788 -4458754.2813 -2527573.425 -1355108.9368 -193162.65604 30365.199853 -5685.0271744 
-328.55737841 53.663222468 2.1457087526 -0.94363655545 -0.1325328944 -1.080160707 1.199966546 -11.248071072 -60.367780038 
-588.43319871 242.7104811 -257.18673438 -2139.1494151 9655.9879558 288.35005069 151025.3084 68982.086045 102709.13106 
66596.465049 185188.1326 2781287.4186 -5393589.446 -1710825.2084 -4112585.7392 -2776113.5537 -2830006.2664 -179712.13867 
-110974.39816 -76932.847241 -109830.51685 104077.56613 -107008.05563 106935.76705 -106922.93758 106924.36116 -106925.79729 
106926.01663 -106921.24621 106888.10554 -106836.06856 107125.43735 -109174.23013 107911.26915 -107269.30114 100365.41811 
114902.11082 14526556.295 -2116381.7942 -6523254.2973 -5268982.258 -895369.32548 -5741016.9926 -3029915.1373 -3354979.6992 
-1465188.6491 45936.280312 -68862.580682 1517.1589904 407.35960121 -21.799014291 0.64462234259 0.53045762166 -0.073032813824 
-0.12974346975 -2.4083964973 7.6141105525 -64.588821601 207.21398901 -583.53575201 -636.05422766 -1823.9790347 6399.7209115 
21240.380896 28632.327096 25861342.823 22435505.327 17021344.472 27856800.193 25405065.581 33140379.21 -2913738.0753 
-2147010.0917 -80582.069124 4133596.9881 2098088.7979 4143664.9041 2775618.0721 2811922.3833 192210.77898 114878.49079 
74566.469291 110812.88941 -105964.93961 108802.47464 -108663.45554 108641.65295 -108643.80083 108645.04322 -108644.82319 
108650.17702 -108682.78987 108743.50255 -108423.81731 106600.34204 -107344.10027 97377.278334 -93683.220339 364734.60842 
-18736328.016 2196327.2517 1392832.2679 4724621.1438 985977.87949 5720244.2849 3014672.8398 3356531.631 1469476.062 
-53990.492371 68467.988666 -2280.0644005 -284.04339017 12.864067616 2.3968652812 -0.31932072346 -0.1411948779 -0.15712317469 
-2.2450966541 7.442185045 -63.747378029 227.23387473 -497.30871767 -1268.7079776 -2138.9420553 -7751.3413626 -26372.178049 
346305.78301 -3308193.007 -2864015.587 -2979030.5405 -2885912.7833 -2955175.7178 -2883500.332 -3246031.7801 -2965367.008 
-2952604.8766 -2981946.3476 -2994036.953 -2942565.5254 -2921491.4066 -2722795.1515 -1415715.9698 -113662.35656 -2945628.2211 
-2127170.7474 -745505.68465 78485.034334 66743.996164 10170.928485 115877.59594 22223.949102 66182.04829 30072.653963 
70960.521793 88612.044165 100861.37361 95933.52888 139046.41494 78615.588294 18625.972145 12490337.618 13938210.514 
1482663.065 -1485532.7367 -1546198.6965 -1433253.0181 -2951690.4208 -2954180.09 -2961878.8243 80527.316881 74641.997019 
72275.099475 -3273135.1608 -5376178.9322 -4736718.2162 -5797022.9333 -5757059.3014 -5694273.6982 -5803891.3441 -5890030.3567 
-2101250.8056 -2123806.8549 -3472543.8665 -2132134.7442 -3477814.9455 -4952347.6261 -4071883.264 -4920278.8368 -3780865.8754 
-4190285.2329 -5627103.8366 4662154.7791 -4997968.1432 -6518991.5813 33272568.831 -6859770.9841 -6688089.1511 -8858541.0306 
-6876793.7139 -9789197.7875 79906222.444 114964547.79 20943625.512 77257970.763 21052666.492 -8186265.8244 -6489863.1812 
-5346507.4375 -2236740.877 9662305.5919 -948212.57668 18120885.715 -6607688.8003 -7992713.4113 9492847.0904 -2236315.7927 
-1753976.8867 -504383.22703 -19356385.715 -10071039.932 -13612443.231 -6424645.9118 -20096736.245 -946090.32225 -1843945.398 
104829.32021 -1352645.9455 347856.42898 -21643983.874 -20857412.722 -13741173.313 -22192385.617 -22075223.101 -21697726.88 
-22780477 -14009247.954 -15268309.128 -17483529.815 -15636140.46 -4052805.8997 -1549333.4516 -2281767.7622 -8656578.2126 
-5680843.6158 -4200975.5904 -12542918.45 -11546948.785 -9977491.8622 -8160143.676 -3934330.0762 -1625261.4264 -8656056.6239 
-5682490.3036 -9977276.2595 -12568537.978 -17959082.351 -25271270.592 -8574614.0841 21042414.927 -1782299.2432 -20693870.995 
1583240.891 -12929663.685 790668.62938 -26914067.292 19495926.989 -9034949.3433 -4660742.4795 -18768791.839 -5927101.5719 
9758778.2631 -13335709.749 -13348035.64 -12006359.916 -9283712.5747 -2965669.9848 13752646.522 -4388585.0277 -1735070.1178 
-8446863.935 7003207.8314 -18526394.038 60821.854585 35821331.392 -1624594.5589 -7242149.1614 -6033473.8348 -9982368.6665 
-16136983.296 -24136830.869 -188377.91964 -24921217.276 -20436143.936 -8993438.9183 -11230458.274 -1357027.4232 -7712613.1448 
-8860582.6413 -2900700.0828 -801502.22587 3445295.973 6574934.0094 3504689.824 64294452.56 16475016.324 -10914858.059 
2821546.4761 1640685.7657 -17810107.614 -22918036.701 -8756020.608 -10969138.757 -1452442.3808 -6926837.6783 -17016373.478 
-32641.987436 3136657.5448 -8966079.471 2528844.0637 -631506.28666 3372687.5728 4505757.7181 -7762595.7296 4927074.7437 
2508414.5115 -1415208.0214 -7362474.9622 12856826.722 11205.338147 -9630638.5546 -2006254.6923 94118558.826 -695094.84818 
25376616.562 21306847.404 -8444716.5868 -6371285.1814 -4512231.262 -9004139.0644 -3792314.2866 -4639212.6635 -4931629.1243 
-9976522.597 -3248087.7782 -727410.47893 -9853898.1168 2845729.4091 4012278.12 2258980.1694 11877582.883 -19595009.791 
-17035213.687 -16478041.507 -15027996.065 -4866529.0627 -16883824.124 -12533931.725 -7377837.2171 11748877.28 314665.94236 
-4230244.8935 19854258.928 -20235527.311 -16536232.896 -9822755.7984 -9897829.1619 -833416.81295 -9717442.4853 -5002287.9517 
-10913695 -7167342.964 -14109459.278 -1787433.2942 -611225.70543 -7370086.8855 94347.175842 2980.6327313 -395363.50289 
26442.443233 9100817.6207 5319199.4834 -3948064.0925 -8111337.8693 7111790.0954 -4551357.151 -26311.146237 -646081.518 
528060.07949 -3757422.56 -14695991.076 4631228.0697 -9039453.9435 -1695609.437 386989.81481 3748797.2826 -11707116.233 
915139.46987 -1020979.7364 -9194707.0613 -5356061.3747 -19355884.233 -15585442.138 -9795603.1007 -8154498.8755 -10873967.385 
-8367500.0176 -19886752.965 -23657705.276 -3009712.8298 3264084.9803 -16597982.193 -14695651.878 -18684466.854 -12762705.879 
-14878015.137 -21602475.285 -15748943.318 -20901043.289 -23774884.607 -21134289.456 -14405082.88 -10376299.942 -18621464.507 
-22900109.732 -24045108.698 -18890455.774 -16816413.472 -22836417 -25174938.037 -26517031.439 -26389038.206 -25335285.181 
-16161930.25 -20776655.468 -8542317.591 -8373421.7552 -9275853.2214 -9422296.9358 -8187558.7429 -9038828.134 -9098569.9976 
-8068691.9011 -9679014.775 34703213.066 20989935.62 29483364.199 6724619.2321 6430777.9769 11252322.391 1874545.5451 
-3514664.392 -2145570.227 -6192004.7502 -5887144.7339 -6976454.3237 -19558869.788 -13745520.717 -13987331.62 -4595374.7568 
-18054392.966 -26243251.279 -8527622.3405 20876063.029 -1765742.6979 -20457532.039 1721744.4916 -13743691.085 943683.66306 
-23983252.972 20046968.077 -8899073.7183 -4573978.5445 -21401364.136 -6312159.1368 9984028.9053 -13466068.285 -12519942.534 
-11563222.244 -9293361.7419 -3060113.4106 13933593.765 -4366199.013 -1680383.2017 -8407975.673 6461845.2388 -18167074.929 
73665.630148 35716358.332 -1598440.8201 -7309570.5854 -6241611.3876 -10073320.618 -16957034.864 -24824205.898 -205625.76349 
-25357339.192 -19823232.458 -10139717.618 -11526724.217 -1349717.294 -7287772.405 -9581107.0051 -807951.45554 -2879585.1778 
6960941.5606 3422031.201 3519289.2804 16651322.835 65407137.968 2428259.4498 -10974357.271 2785542.5841 -11578302.187 
-8773017.283 -23158191.675 -16103143.564 -1045659.4056 3350807.0315 788762.08964 -17416514.731 -7279088.7404 -8266937.6742 
-926765.99127 2156813.5973 4190784.6558 4671963.0702 -8081033.4811 2560722.8431 4893647.8055 -7395318.4912 -1410998.0889 
12858684.417 -4503.7227925 -710272.87526 93483781.256 -313637.86589 -8397873.9579 21640691.167 26028906.667 -8605697.557 
-4353133.4865 -6049022.59 -10446278.954 -3831870.1618 -7630522.6658 377055.5913 12134185.932 -4277935.0482 19736364.754 
4871544.0059 8451407.4203 -8081347.9181 -3903292.4457 7261289.0947 -4460760.2594 -16837599.434 -23717079.414 -10304906.483 
-2637253.9021 -10876696.126 -9836507.5011 -4421597.7592 -4848720.4829 -4661759.6357 -9569875.024 -667271.30616 -3444426.2417 
-9801062.5295 4026296.0483 2994179.0066 2054702.4536 11789746.196 -7122396.1545 -10867495.062 -14070001.926 -592207.93873 
-1799856.0056 -7252995.8165 24920.002438 103263.69321 -333433.13205 26046.041077 -16698935.48 -19252842.907 -16760400.525 
-7607219.9123 -17579616.399 -17025354.331 -13447488.951 -9070442.4832 4581680.0178 392041.81509 -1709334.0637 3864141.5589 
826264.81125 -11721867.821 -9224943.6182 -1067137.6854 -5358334.2022 -15451647.787 -20162487.038 -8813541.1718 -10258711.53 
-9953523.533 -19999027.346 -8279593.1124 -23704130.779 3259552.9905 -2645017.5303 -17492714.815 2699.7869899 610203.11668 
-619134.90894 -4186623.3849 -14546852.565 -18229734.823 -15163400.563 -14785411.885 -13111709.568 -21012579.903 -16207825.499 
-21531602.04 -22125663.058 -24391737.75 -14858851.836 -10544288.832 -18302401.735 -22791668.624 -16757168.2 -19115892.404 
-23577585.302 -25387517.061 -22412571.823 -27101606.526 -27298516.084 -25674526.147 -8628826.6197 -20311191.027 -16666570.572 
-9180649.9023 -8674467.8167 -9632432.4365 -9069307.4979 -9000621.9484 -8213719.4525 -7640584.4828 -9977697.983 21108064.253 
34654607.549 29394823.897 6436282.4931 7108221.7203 10471930.199 -3419879.5885 1857764.1705 -2169651.4131 -5898115.142 
-5950475.7207 -7181109.9414 -20179068.004 -14057849.396 -14263277.08 -4599561.2787 -1388519.2339 -36062714.909 -8680691.6487 
-33218819.802 5647406.1948 8796467.5963 -46578035.217 -55509524.807 -29525219.524 -55559347.564 -29578513.235 963130.12726 
19489677.613 69238374.872 19552820.221 962235.37274 15771592.254 -8947816.8123 -15682018.543 -6728760.9866 13221519.256 
17343873.111 -31493259.504 -32780770.4 -21396236.217 -8102337.1324 4037147.7687 -20701535.939 18152788.501 -8983618.223 
15727135.065 13203172.444 -6632713.59 -32916551.366 -31216402.288 3552019.4734 -8726497.3014 -32354600.415 -41683088.492 
-7185367.5789 -12009539.763 -30392452.358 -40116783.203 -24006675.541 -46218399.204 -40538421.009 -13744353.202 -10183079.484 
-30406528.918 -31587449.276 -37151353.222 -41710908.229 -37087898.015 -41596168.188 -20792925.241 -7206182.5181 -20277568.99 
-4444860.2706 -14825674.32 -22072158.434 -11699051.112 -36330857.254 -17245153.052 -36561083.321 -32519586.246 -42027990.243 
-43530026.64 -43783126.873 -48141746.64 -22137995.741 -5013031.87 -37383171.918 -18756946.16 -43726565.339 -42403186.676 
-32536290.236 -39124174.341 -7871609.4534 -11580718.466 -39570091.486 -22372416.665 -28978006.042 -4424886.3347 -10154924.337 
19074483.931 18972444.335 169152.21449 -438619.24357 11556642.858 615438.28186 -701558.32142 -2125102.1137 7528786.5231 
5570810.8945 -295416.23061 536352.39344 490000.69042 1467227.5782 795228.49729 2032151.543 -2512559.001 8603106.1307 
9483163.0141 4470383.5134 -2319399.7526 -6270193.8686 -4501213.2816 11144968.034 9308695.615 5666691.7253 -1957116.7637 
-5861347.5904 -4339568.8702 8465676.2796 10110331.416 1994530.2636 1545623.8138 3389618.0016 694787.86999 -36345.763762 
-508372.34135 1057932.526 525585.05377 -536091.18347 -605293.03946 -1161716.6813 -748979.27587 1795614.6051 2558318.3067 
5379608.816 645380.50598 365636.50599 928184.78297 1210444.8806 1004303.3661 -477464.90478 -505302.4495 718013.40163 
-426784.56721 6254109.4576 -1678458.6956 -98937.896621 -1022699.1368 830442.11126 1480166.0953 4200236.4262 1429730.1049 
604437.55015 318215.33415 678871.36089 -8594.6272603 -11193737.813 154296.76199 155485.07082 -4386421.692 -9506947.4138 
-10827167.257 -8789165.987 -5748.9912499 -15171.628833 3002.6226206 -9516376.7211 -10812847.095 -1206.3895947 -30827.312811 
-2184060.6974 -5175166.8286 -7610469.895 452380.47854 432016.64223 -2116859.3648 228895.96657 67431.712619 -1255.807657 
57102.739669 -5176594.4131 -2198692.1882 437891.26528 461423.06519 77754.697306 234596.55614 2069838.5865 245348.36674 
-1049593.2211 -14716.500797 -22180.690688 -3517.1974502 1204.0987214 9492844.8965 -1952460.7421 -4960608.3866 -1346.1446685 
-19576.165872 8685765.2462 -1643720.4221 135162.8611 36998.627756 4086.1927892 3415186.1883 129243.2954 -77715.550849 
7187187.3447 14789.867771 104810.5903 116040.26261 3290185.9267 -6218592.9204 -9451158.828 19193239.849 21808680.107 
-5201745.1631 18151262.897 1899041.7911 1381149.7986 -1401205.1389 -75995.329499 -2142.2159809 -10236469.564 -6005.2651026 
39.235275243 -63038.340328 41113.36498 -1437327.7903 -1465657.0661 -56.452285479 -13.591395853 7.8280658235 1.1796719099 
1999.2066427 849.3837367 -307747.51409 -7500440.1356 -17453503.048 -449733.66237 755.50317822 547095.96225 -366755.24219 
-221677.98211 1490.2946136 -49.283539056 -2.9720341926 11.248515423 -98.745994805 -2254461.7812 192342.45675 2222632.9203 
-846.15477372 53435.100386 91585.114905 -582137.82666 9892.4817621 -194315.97807 -644957.88012 -1592.2524451 1.2713391028 
-90.392325355 -1306.4494803 354533.7115 0.21714132907 12.09368672 59758.979728 17190.903703 -1958613.5196 -579159.20831 
-2287860.2327 17741188.84 12133587.814 -1886244.7597 -721584.64825 19420577.478 -25674060.034 -72953.039923 -2525561.7666 
387003.15896 -155895.84374 -1339499.7721 -2508311.8693 -611776.06335 -2535.3932483 2.7553668652 -14.060694154 3.6781985408 
1.7094419938 1189.1268179 27894.93499 -2613374.6142 -2575561.4129 336140.1983 -1895691.782 -330565.68799 -2556.8998764 
-255860.94213 -315344.1045 4772416.9401 2434880.6867 614010.97337 -460.30246019 -50.30876097 0.77440955417 4.5999400949 
5.5207083777 1235.1680398 1633.7931316 19795.584204 -81708.561574 -359929.45625 -25168033.713 -18584898.356 -1700130.7568 
21814717.722 -2603811.8641 -2227076.1226 -198748.86333 -31804153.854 -10088510.688 -17087218.55 -3706982.7466 -3505791.979 
-10218259.778 -11088553.016 -43598777.394 -2693539.0331 -4823977.8141 12333509.393 6777303.0796 -7916598.8153 21473410.379 
-1329594.1155 7892833.865 -4026103.5706 -12086133.294 26040375.481 -515287.42183 -97710.329108 -2476472.7371 -2095582.8237 
-1303180.2772 -2761187.4383 -2788839.8764 -2607941.0505 -75226.487507 -164284.3883 -74777.599395 -30857.830855 -327784.57274 
93668.661088 -137263.21129 -94276.265002 -25321438.442 -17590399.685 -55806212.222 -29133656.893 -18093392.679 -16021605.204 
-32420403.658 -29347498.83 -28009291.791 -25301807.475 -18058044.899 20158906.077 2103629.2295 -4242938.9441 5279982.7219 
46272153.181 15053471.153 15224261.699 15289227.665 9861185.9092 22258560.711 56281412.444 4718300.1639 8200817.9629 
12066516.831 8838260.3928 8928393.5118 8366617.3804 2839892.7596 517784.68014 3714006.9904 1741753.7231 347056.54941 
5048573.1755 432410.24758 -212692.55478 -425016.4209 -445795.89501 1198960.1528 1961513.8064 -226090.27486 -1424106.9427 
963922.74074 -763190.28518 -341472.70389 1007539.5129 -631538.97293 300366.79037 -295444.63241 -59269.00833 -222171.99114 
-257962.49338 154206.90666 -151667.26962 -183081.67671 31157.854952 -29685.276511 94374.505243 156556.23988 -156658.0127 
-91417.846211 30861.749883 -30966.529594 91913.536424 156556.96454 -156576.12003 -91888.832593 30907.180701 -30913.67078 
91848.064794 156566.46228 -156562.19239 -91851.816455 30917.193369 -30901.049221 91862.501035 156579.71928 -156547.32238 
-91876.060269 30742.762379 -30874.623121 91935.724866 157039.22225 -155236.69499 -93480.260248 31156.862625 -30014.620782 
98809.321847 155248.37204 -157383.36366 -104048.46816 38758.421691 -27658.778462 99101.664717 154757.44246 -144150.18473 
-101188.01474 -62494.81916 -31620.660775 109778.26773 -21564.420739 -2694753.0885 -2749294.4399 -2305996.2279 -2558602.2997 
-2613032.8546 -2583676.1367 -2688103.4416 -2843400.09 -2325683.2647 -2579065.8808 -2607214.4149 -2522127.0093 -2691770.34 
-2782167.4133 -2389045.6127 -2589366.9173 -1659726.8561 -2221395.529 -2262913.9615 -525587.57327 -1071386.1395 -1302665.9269 
-488550.44875 -121850.53968 -187500.46986 -461119.23473 -296586.86961 -318886.25392 -358819.76122 -33756.724777 -199473.05829 
-567707.74877 -288990.38866 -282055.99031 -362582.42482 -120209.0481 -203816.77367 -463955.47512 -273375.34439 -477017.31645 
-2650921.19 -7790954.0076 14175862.578 8082801.5657 -9537643.548 -5507462.6208 -1419684.2894 -3836352.2937 -9529748.0162 
-227707.36985 -1730286.039 -5211442.6015 154130.88402 -485147.66884 263291.81974 -1200858.9638 443662.77643 -2028213.3413 
1411465.8656 237447.42783 -970191.99156 336863.61443 756543.69109 -1029274.8661 -275645.6862 629143.41223 295269.6719 
224309.03678 57797.754037 255110.26741 149899.20522 -156099.00337 183494.72093 29698.876961 -31166.098908 -105650.41463 
155757.14114 -155757.99554 105020.59723 30766.79755 -30723.342157 -105755.06554 155718.33975 -155714.71349 105706.52346 
30743.187649 -30739.836024 -105704.35259 155717.45877 -155711.7321 105703.27587 30751.454273 -30732.326037 -105690.23643 
155734.01246 -155694.61241 105675.4257 30792.444503 -30888.801636 -105600.12364 157066.21349 -155203.3677 104029.18359 
31931.899215 -29871.457661 -98399.07467 156650.63196 -155775.04327 94616.355462 36612.638504 -22385.939993 -88811.093754 
165193.71603 -128008.39564 111270.26391 82195.419467 -10015.901163 -27571.500847 -153985.52877 10573302.139 -27143972.124 
7492043.412 -11806332.061 32663218.052 -8222777.6131 -2906759.2237 277735.50981 -940406.96303 -1442931.9337 -1921543.5447 
-894957.5803 -1951402.3308 -1619349.1345 -1099249.3817 -2178444.9044 44571.217383 -24171.586505 -148481.03226 51821.91475 
-319027.70693 -97782.927674 103043.29807 -141230.72604 81075.978467 -171.59492607 -83721.654938 -11465.588994 142244.08953 
-1142.2658567 -141189.2935 5710.923493 13062111.978 29439525.552 745498.65526 -24817249.793 6240299.2433 12958480.043 
3315615.3061 -8778548.1619 -18580111.653 -19318.297056 -15994.695839 -149410.14007 -229566.13467 -717.17511479 233474.298 
143210.3492 -379207.51794 378810.23089 -266194.74483 25576.675946 -32984.136243 271394.00801 75254.620024 -245179.40409 
-136212.99783 4169063.4613 -2291602.1154 611563.74629 -76805.55229 115195.98174 10718.217513 32987.632098 155141.68341 
-5199.2804131 -82926.261865 11409.705168 -727739.56263 -1080716.6209 -1963951.2201 -873056.87626 -1648040.9728 -1476304.3062 
-1243047.9679 -1976986.1296 -2070609.373 -840476.52813 -2027325.6155 -899152.1788 -1158054.693 -1738823.7355 -80119.359715 
81497.43309 99.614039237 80800.100078 -18.435218679 -82258.350045 -98.037572638 -80898.181686 82242.491817 -15.17749277 
80870.186622 -1.5360031628 -82264.013183 -3.8293938095 -80876.855829 82262.199794 4.4703571901 80886.88582 1.9435714108 
-82251.475096 5.2865484119 -80872.572715 82267.108661 -50.598143407 80764.920277 -23.682615858 -82378.362122 -50.388294235 
-80482.460302 82681.457065 2411.994685 -83181.947785 79849.546473 -329.71286903 2460.3125873 86803.131149 -74534.775411 
-2561.2794973 81627.650498 -82766.49151 1659.1143537 -705008.44455 -822363.4741 -166694.86069 -216000.47132 -12652.354236 
-317355.07704 -7873316.3491 14748269.677 -13640183.95 -13980029.361 1128109.8095 3097542.5627 1398445.6642 4255929.1539 
289682.34802 631580.4836 714850.34863 437369.19468 -83409.464407 -11628.88068 604.8012962 120.72098907 10.586249604 
-3.9072016026 0.2452698624 -0.51906984294 -2.5148386256 -6.7826669085 -296.77045328 11.913538973 159.03287713 -322.22402305 
-4993.0460669 6574.2747281 -103301.36951 203581.07512 -1720588.0712 3616226.7015 53263.614122 38887.666383 -215748.57485 
216364.93184 999433.35423 1476024.2855 -617939.35493 -401871.42683 -6947015.0383 -7579990.7154 -528063.11541 2620482.7456 
-3472198.4591 -1986539.0569 -860195.60275 1282866.9602 -2126224.1708 -800070.11591 236374.0872 -1129775.9551 -1796435.8201 
-1343964.4161 -2577813.1154 -1731653.1923 -1884904.0048 -7265.2431854 179000.66528 -1422077.9949 781297.19513 -712567.74235 
-168039.9387 -98604.797223 -152579.05045 199955.59143 -135115.17749 124586.57345 -25179.022005 -71226.232455 72376.396786 
-606.57619394 -132819.23332 132864.56486 156.6814981 -71313.586185 71322.874953 41.870152126 -132820.29677 132818.40633 
-7.2370661015 -71315.842154 71316.218143 1.1382354502 -132820.44861 132818.84108 -0.77233369193 -71321.539115 71313.52442 
-0.53113485241 -132813.309 132819.69408 -3.1733978437 -71696.840766 71258.087845 -35.379833655 -132492.23219 133292.02593 
-348.19454788 -69433.102416 69363.432121 921.22398513 -133803.32026 131968.63732 -289.67139113 -76755.4429 68193.622989 
-2029.372794 -119920.63944 130108.55351 -3541.1178769 -109957.9548 50787.41683 -36125.610832 -296111.79661 5346146.7923 
4194195.8788 1041614.9017 1802832.3063 145861.08508 626713.77131 -852756.99611 -1813536.8956 -2181754.8707 -2045492.9767 
-3436322.0978 -968656.31611 -431291.31918 -1316749.157 -842525.60125 385687.75599 38660.945282 136312.22935 -141347.22461 
64983.038784 -76552.039913 132676.55054 -132891.56829 71441.607104 -71277.946416 132829.84675 -132815.59508 71310.359927 
-71317.02392 132819.94613 -132819.46922 71315.634867 -71316.043464 132822.58037 -132816.50267 71315.550331 -71327.077628 
132781.32475 -132790.50104 71230.888547 -71427.111725 133239.49037 -132404.69439 68805.058478 -69106.33646 129607.35848 
-134115.70915 74011.044055 -63141.623534 149844.83127 6327833.0513 -1410217.1068 -483968.23132 188956.69986 20032.53624 
-338.97811253 1049.0470798 247.94497289 -1439809.0522 35.691627692 2.3918353587 -21.004958995 -197.48370115 1960.7082318 
11101.047197 20216.995829 -1483708.0752 -4429284.5607 -672646.3686 -13461564.329 -1338.2135444 -1841.5074049 761032.00403 
-586547.44024 -2305756.6661 1745.3936931 350.51611401 10.427310433 -1.1036192559 -82.388488256 -460641.28478 -79321.221013 
30865.662062 8705.7089423 -646672.59658 660892.04573 4929.5416238 -139.80467453 3.7657005025 -2.1240946831 -84.62376128 
95422.841037 -645094.3166 589798.35125 -1410.9397215 3128.7726272 -597286.78374 -2268975.5283 13250703.909 5989940.9484 
3050661.313 -1883812.939 31315743.137 -701359.5182 -24335305.061 -109334.27858 -1854955.5835 -502655.79456 -52807.649397 
-4677573.1762 -2532558.2842 -1385733.3293 -2001322.8605 -141407.15708 -150626.92595 6.4792650773 2.3961124292 -4.4469260899 
-141.29518694 1258.7942273 8894.3467235 -2584138.7343 -4734642.0701 1744374.668 4421278.4091 2001859.9921 132227.91624 
151166.02491 -2222.5186791 17.887936522 -0.20152906842 -4.8018988804 -147.56391743 1172.8838556 2913.3272754 2573.8397508 
-291323.18501 -371644.89235 -2567941.5758 -12324.976591 -354051.04868 123940.02448 -25928196.853 -18872431.62 -3680434.9945 
-4002732.9483 24112568.689 -14265679.298 13394521.637 -228023.97845 -2584506.5289 -1229418.648 -190403.85562 -31833356.566 
-6325149.3084 -14293526.629 -8150627.7938 12978950.772 -25413930.042 -4746047.5331 6597835.3669 -18798472.104 -8459673.1321 
-3667667.6105 -1843320.6969 -3325973.6105 -10450914.953 -22030845.56 16885108.98 -114944.96107 7822.5588939 -173747.93899 
-121867.64637 -268137.33656 22474261.919 14436934.446 -17841316.467 -1385005.2585 -3207223.005 5056486.5725 31890404.316 
-359245.97053 -1364801.8888 -2299502.676 -2753523.2923 -2604390.0379 -2771101.7749 -166043.09312 -71736.251953 -71911.041146 
-29806225.08 -24983389.053 -23483162.308 -19843883.153 -30840787.559 -16101641.818 -27212951.726 -28506621.585 -27924343.265 
-26190457.768 -19972702.22 4852941.5269 16485870.397 -861871.20778 2798085.9379 20935706.682 19509906.207 11984664.766 
17691285.607 -2893572.684 -647417.96632 6167973.5278 -6786867.8604 -2775224.3882 -17273815.063 -2629024.449 -5493124.7917 
-9438033.4031 -1697950.7016 -1553570.7233 1692454.7486 -260987.89453 -981885.42304 -2626721.6427 378334.47013 1767810.0215 
-567990.31179 1044619.4506 -370825.41131 -1742555.0215 104053.84165 819731.72365 -737085.50367 40133.782067 798618.07518 
-68336.96543 -76488.837143 266884.81704 679351.66183 -28888.2036 46575.813158 -66987.201671 -156867.91603 153732.7071 
105385.45193 -30838.707615 30484.547937 -106187.23121 -155702.41922 155724.30542 105713.41326 -30743.470822 30739.78075 
-105695.54739 -155714.55165 155713.88215 105704.1622 -30743.267759 30740.385319 -105701.69457 -155714.89193 155714.6831 
105693.18235 -30781.008791 30722.750077 -105706.00214 -155555.61651 155765.27912 105391.31495 -29985.172662 31091.980526 
-105368.02785 -155487.94292 156901.20118 99029.271154 -29840.495513 30920.248182 -93013.286275 -150799.55383 155827.19179 
99125.806229 -8592.8924332 27944.644542 -100254.42445 -91970.46758 195593.69917 38860.899444 132897.67657 125877.1374 
-339254.90682 19858890.181 4877250.4373 24110024.069 9584275.1479 5728589.9467 -3982225.4338 3517863.7815 4645005.1694 
14807903.177 3496515.4942 2319222.7249 10924306.326 1845288.6946 1784768.1478 -1650670.4544 1048708.6288 295481.10468 
2867395.6137 -1776061.5065 -374244.9813 599993.70291 381449.85617 -1027944.8675 1750575.696 -818023.55893 -109223.17639 
753953.08008 -798437.69794 -38032.812295 52396.811737 -266481.23828 77692.753815 -674154.76959 -48417.928713 28700.032172 
64091.073781 -154811.91171 157676.68228 -91833.50194 -30538.858354 31075.392157 92915.970065 -156563.01422 156560.5378 
-91816.048951 -30898.895279 30918.088169 91871.207745 -156561.74812 156564.85332 -91848.686777 -30909.229504 30909.048182 
91852.788108 -156563.94249 156563.96866 -91859.539447 -30927.327928 30871.990072 91845.437016 -156514.80248 156726.26027 
-92145.520476 -30552.256723 31689.792221 92150.39976 -155386.81297 156799.55682 -98348.128741 -30770.227867 29781.263316 
103919.74461 -147944.06633 156139.92025 -100265.97646 -2187.8638006 53819.538456 146159.63068 -121136.99685 199922.3922 
-73342.917676 -47941.303331 -237488.40363 -327474.89543 -2225536.4385 -1648352.0124 -2271742.3448 -1066321.5067 -511731.6911 
-1295877.7488 -459078.95838 -2948197.7796 -2692722.6238 -2023493.0668 -2463473.9845 -2055170.7813 -2639006.1229 -2637668.2165 
-2574201.7552 -2810371.3866 -2682282.3971 -2365969.557 -2583742.2434 -2572847.4093 -2508345.9239 -2765499.9137 -2681003.9485 
-2428080.0316 -2599467.9113 -192514.96836 -110704.39054 -632341.78445 -290851.69089 -281189.62846 -354591.13039 -182488.11731 
-58903.358904 -542274.57994 -320347.82815 -254929.5065 -361004.96821 -210231.44055 -146095.65133 -509426.22875 -453788.12988 
-246606.63591 8655523.6963 -19566560.171 9262532.8416 16625216.785 15404645.389 1498954.7103 9822054.5687 5807172.1479 
-1833077.1494 -1465403.2003 -919174.65855 -899344.26433 -1989135.6518 -1093850.4836 -1617960.7358 -2158703.3659 381031.22959 
530932.60983 -924823.17902 487991.14569 -1403988.7902 5181520.6575 -3500760.8714 6432931.2906 -56998.387006 68589.166296 
315131.31365 605186.62512 -166317.55632 972889.87298 -174165.10738 -142230.08944 231278.7752 -113333.06287 6150.0613596 
-143273.5497 153224.82336 138264.7724 175586.53556 3758.5623706 -175042.95741 -158893.96213 -317569.23943 333758.997 
149525.17579 -79273.887413 982.05760498 85639.642625 -111288.05265 327327.48313 -326517.39396 113241.56043 83769.655252 
-80688.019908 1270.3345042 -82086.044048 140.13934774 81154.542206 -297.91428686 -1507607.1605 -941765.71254 -2019120.9529 
-1998074.8953 -856838.94587 -1773099.4983 -1104096.1064 82231.589283 -80686.194265 59.464391676 -82240.362117 9.3452972938 
80900.485647 6.7933089555 82263.440057 -80872.693168 3.0794874895 -82259.865927 -3.5283094196 80879.44187 0.53813791687 
82248.927452 -80889.291069 -22.902292646 -82326.496062 -129.11549548 80813.802717 -23.89938006 -83119.318791 -748.85971469 
80066.004601 -478.42474402 82069.872051 -81066.250633 -498.15703737 79723.075634 -83420.629148 2650.9967936 2797.2908438 
83656.558726 -79560.657509 2832.9455246 -75292.699726 90222.71391 1595.5264953 -96010.173157 21046.656836 119827.93407 
16636.788294 86489.782909 -64596.632003 -5632.8864361 -27698.422798 -127936.72907 -82815.806181 87638.128067 -1314631.3523 
-1688103.1427 -1990431.3646 -924772.33109 -1088357.0666 -785201.50282 -1956538.706 -581759.92036 14292916.899 -4917287.6386 
-24502243.246 -5223612.1217 -859914.48849 -174616.57476 -577611.53548 -967579.19504 -882380.19889 -1061156.2691 -350326.68706 
9940866.6495 2948858.947 30539630.115 29584751.775 24762613.117 23535065.609 33150742.036 26037216.323 32257404.635 
26531729.986 9954807.8399 22135834.635 5399528.6066 8845338.0946 29087003.166 23925766.644 37195467.974 7084564.4302 
27671962.5 10201032.781 19407913.099 19864111.703 30752678.697 33411135.61 11412188.235 -18.830732827 -4557892.327 
-1107500.3691 -5743137.2729 -2102067.8615 -264144.80567 -198579.81155 -637288.18199 -436705.26864 83649.441023 11038.806143 
-115.5288981 -4.9742915927 3.6764895213 -0.14028215963 -0.13175347893 -2.4033702046 -5.0100562087 -296.01025241 40.164337322 
409.97777875 -2838.1375671 1585.6953134 -8595.6796371 66123.152636 -711727.18137 210732.78826 -130081.90146 1478109.0692 
13251.50786 -4021768.3541 -1106751.3111 3214970.5859 -3120960.3134 -4788475.3218 -1052233.3895 3393390.2683 -2740315.253 
1279674.229 1526989.7309 812114.74872 1967928.7872 -819583.4313 788999.75472 2166983.5676 -194744.64784 1819563.4225 
1128436.377 1364080.5342 1740575.6911 2586013.8678 1884399.8405 -180845.02156 -5927.9617885 1414752.695 721247.12287 
-789515.00493 174435.04458 153308.3913 100657.50522 -198346.72034 -125163.3369 134190.07167 22866.569114 -69862.249471 
69599.8609 1253.6327024 -132918.43519 132885.2065 -98.110651805 -69560.545238 69571.30867 -35.978477803 -132871.60395 
132878.59779 7.7217730682 -69566.471995 69566.748546 -0.59318337747 -132875.71564 132874.85792 0.13276102789 -69568.50564 
69560.960935 -0.49641846271 -132874.23622 132882.37273 -3.0211731169 -69620.415452 69187.129486 -32.097893297 -132382.16982 
133226.99555 -349.60431998 -71421.578898 71820.677338 1003.9532292 -133720.4012 132249.82443 -275.2084393 -69869.115065 
70226.358151 -3278.8290716 -131457.41905 121702.42615 903.88348666 -50107.748291 50922.364293 22015.893995 51603.861482 
240227.12807 626861.88243 -523785.98329 -992690.31343 275445.49522 -813507.90108 749509.26262 -588788.22836 2190470.3004 
1863626.0266 3421598.9581 2075064.8803 449817.76622 964623.42681 851466.68324 1310069.6434 -39862.683628 -382845.4278 
141285.52705 -136961.72066 74834.883082 -63953.751226 133001.47183 -132786.30339 69520.649392 -69684.427723 132862.62485 
-132894.12291 69566.24327 -69562.391793 132874.5995 -132876.09052 69566.257127 -69566.2157 132878.14664 -132872.60916 
69557.340395 -69565.971879 132901.13273 -132915.01949 69479.476191 -69638.798845 133246.17737 -132463.211 68547.254939 
-72092.623247 131278.52774 -130838.86032 65053.506162 -85573.469713 -145681.90614 -2933037.5554 -2889406.3457 -2945152.8064 
-2900404.8697 -2813546.4753 -2946575.5704 -2901885.5454 -3058977.6978 -2924724.5775 -2894733.7184 -2824990.7026 -3092267.7784 
-2924757.6913 -2980820.0444 -2929549.462 -2980119.6976 -2991313.8915 -2874432.5558 -2766403.5534 -2969750.8898 -2943306.2294 
-2967970.0243 -2965626.2625 -2876076.1352 -2829977.4158 -2898473.688 -2868505.39 -2805784.4707 -2904554.933 -2950580.3535 
-2858998.6186 -2987843.5118 -2943170.0845 -2964605.901 -2976201.4139 -2169921.4893 -716055.52628 -2931871.8725 56981.813326 
-2956233.48 -2884641.2015 -2923826.1717 47516.481306 88675.752234 100221.48041 -2888983.7103 -2960109.8174 91446.136815 
51419.829127 -2433848.4342 -1806421.6225 -2629380.8776 -1096555.6288 -398389.75022 -1454657.9947 -273665.98276 -1807102.0333 
-2443207.2772 -401377.56518 -1081279.4762 -50432.207064 63057.373418 21893.153264 92854.494179 73403.431736 11110.165515 
99728.762877 85088.801838 13805.44888 -20566.090793 -60416.875153 69780.989575 5572.0467002 65826.532674 117973.21866 
125247.03259 -2824.186645 121275.17611 -108552.23691 51828.111243 102917.08273 101851.16337 68711.556766 122492.69932 
75590.067709 77328.177508 42626.900846 -34465.371456 79997.326494 44013.412637 121649.04819 -2312.0830197 93222.821632 
62061.892957 138386.79068 -11777654.18 -9041151.935 15504331.567 -7113376.8829 -6966078.499 -12373600.276 -7928241.0813 
2580789.4913 10075971.866 1130255.9038 3355847.8971 -13757368.065 -9889089.5693 11703497.575 3172602.9101 -10024094.133 
-14006457.401 -20462167.839 -23732471.041 -19198397.152 -18901947.837 -20423845.595 -16974511.889 -19238273.08 -24670567.094 
-23569182.867 -16691105.555 -10439389.131 -16994003.683 -11458840.677 -11889687.418 -12123261.145 13687790.984 13601963.5 
2649724.0412 -23319004.076 -26448057.694 -17477972.563 -14822479.278 -12598074.546 -8343317.2221 -12622736.64 -24086216.397 
-19567049.483 -1079475.8923 -1073684.8071 -8900576.5029 -7039258.0625 -7059153.0392 1599713.6911 -21442352.709 -25617929.307 
-7915540.1373 -7936629.5446 -10034835.752 -1625463.175 546914.71424 19566032.696 9974343.8749 419363.48003 -1934658.2409 
19659459.553 -15889647.601 -20138527.558 -11784353.6 -24751647.782 -15942088.693 -15828740.73 -21187399.398 -15899576.012 
-13977473.24 -14849888.147 -17819234.526 -18341702.348 -19606753.411 -24540587.795 21244782.363 -3905062.6936 -989037.77086 
13491908.572 -9922683.7765 17171851.079 16929143.216 -7886769.3225 -4818863.7676 8451811.6449 -7369511.3519 -6745956.1267 
-16555293.695 -2479845.7792 2318133.1784 -85091.102044 -2639324.0988 1344314.5788 -850176.79336 1245566.7776 -911910.14511 
-2649908.0936 -17112967.664 -7562182.6427 6067153.8073 -7392353.9984 8114794.3803 -20048824.261 -13909017.578 -11256214.568 
-9924647.5387 -9786484.8745 -22700685.323 -22517891.772 -16615125.769 -9790990.1032 -9899712.9136 23539093.45 26111396.342 
-9257256.0975 -9572922.429 -8454671.8144 106808195.87 40001536.463 65345042.412 22069888.53 40316687.097 106494935.28 
22072516.693 -12057069.426 -3147264.0329 -2149864.7622 -1111998.6341 -8514923.7135 -8545746.9545 3039346.9809 -9421259.191 
-886218.99795 -8542328.9554 -9440435.2286 3026003.8326 -904896.34694 -13366608.473 -7413005.5916 -17693559.614 -17835732.113 
-20800911.021 -14258463.988 -14111999.15 -2916572.9978 -2926031.1221 -2374693.2262 -17006038.208 -11728879.631 -9898879.7843 
-8363030.4754 -259095.32675 -11629014.868 -1126546.9983 -17526332.238 -1135550.5071 -8393122.1157 -17732401.831 -10101390.757 
-17803569.348 -10171321.459 -14064316.628 3148561.6973 3589918.6646 6859065.3694 -11402256.479 -10277361.632 -11896804.428 
82337.561194 -14477847.441 -10331599.181 -3117822.2479 -10458376.088 -6725232.8316 4325681.8454 5014728.9197 -6613813.5452 
7503373.7047 -10050447.291 7218922.0797 3635184.375 5443108.0806 205905.56788 5877172.9961 3607359.9064 7080624.9863 
-11543549.778 -8078742.2035 -4771309.6512 -3586647.6085 -7842876.7822 -6314506.509 -13700513.466 -16893914.368 -4597591.7161 
-8139412.7238 -13877378.022 -17627314.736 -22701935.621 -10054527.364 -7393091.1099 -7380985.872 -20791494.916 -17847340.794 
-22940105.087 -14862306.502 -16962136.913 2385737.841 -545244.67425 7074396.7144 16021319.228 -532323.39475 2598664.4473 
15727889.958 119542.40476 -3401960.7436 -297642.96529 -686156.01685 -4214874.7163 -4193707.979 7776401.486 8541858.4625 
23865133.144 6494269.6622 4193145.6122 3378603.1365 -273183.12398 -691979.62853 -3422031.0564 -8114424.9837 -8697243.016 
8779288.8995 9203694.2585 -17489371.96 -9585174.0391 -8801096.6514 -9438574.3121 -8268671.1456 -15007635.369 -16311287.711 
-3811381.0503 -4423473.6853 -3818214.5686 3197756.2878 2694443.1057 8421392.7464 3982329.0687 -10767719.401 18665525.012 
5786984.9015 9352846.7078 5491903.0586 -914103.55159 -454450.37614 -36656.029678 -178082.5195 -10290729.772 -4915013.7692 
-7245791.8566 -7907257.1122 -9077662.8826 -10191718.971 -517912.06801 -500065.41621 -7563797.7297 -14598706.753 -12801047.934 
-11656397.162 -10218692.054 -4702963.3969 -7478445.4616 -10695051.498 -8125430.6545 -31727512.854 -32368173.326 -23816832.381 
4317108.1018 4710510.4973 -3419913.7643 25402763.237 25025245.165 3473215.7376 18745305.598 18528110.575 110542.53563 
-75771.061977 143182.15628 60423.968973 160578.41924 -10615017.869 -3484202.3846 -9101089.2847 -9682581.7849 -3449829.1552 
-9721953.8454 -9132284.3212 -17544930.071 -8185637.9623 22779435.578 22534551.609 23133153.466 -4178531.4793 -5462019.8469 
-20973742.061 -10765896.575 -19918235.067 -10664455.82 -9270364.5594 -70921.539109 -88030.543886 -410402.86326 -4176318.7993 
-5483677.178 -27010581.115 -29476110.84 -29900380.191 19554521.878 -8400315.1288 -1388588.9419 -2000731.9104 -1993162.7051 
-1892779.2158 -1391981.8541 -22152117.179 -18854537.317 -2714482.4383 -2370828.6428 -2593308.4035 -2363010.4915 -2723606.2455 
-1619246.0755 -1303097.3907 -736446.3109 -1827763.6593 -4068727.7741 -3602504.5447 -377704.55564 -23408067.514 -18993997.745 
-18942874.064 -6175379.9791 -5754334.1938 5521972.6107 -351424.18688 -40673327.438 -272126.88178 -723900.13344 -22004265.597 
-22395415.532 -22280451.154 -17449984.149 -2750221.0203 -2778479.0547 -2787438.1263 -2502346.0618 -2768688.1026 -1093388.9034 
-5359058.8987 -5705539.7695 75972.097164 -70.021877216 -76802.432822 2549.5303614 -20576.680685 -2258069.1221 -5575078.0802 
-727589.86231 -40771281.415 -5621959.2145 -7246004.0005 -9412810.383 -7229392.0737 -9399194.1528 -1415417.0499 4755855.2322 
4198088.8465 -2678427.3917 -2666713.0354 -2735815.317 -2662455.9668 -2699802.9921 -4713137.6193 -3279030.7219 -11725493.847 
-19349556.811 2615673.0311 -19375131.376 2688248.0267 -148746.16144 -131793.72844 -392502.14653 -505073.09939 -297392.12629 
-8934220.8219 -8479108.0533 -8872667.0761 -8291381.7468 -2530831.5996 -4295444.6842 -4491207.9504 -1582163.169 -5897328.8959 
-1768187.7333 360336.28855 -8169696.5514 -998885.92856 -33741.164743 -11506874.681 -10123813.825 -10423861.468 -1401684.1954 
7584251.5326 21760453.535 13616542.377 22617664.027 -119300.36227 -326288.39861 -121244.00092 -160519.22285 -162258.39094 
-2702415.2559 -2740306.9933 -2770420.6455 -2573334.609 -2696956.8175 -220240.28737 -221608.92756 -182097.44521 -230547.48815 
-137186.07758 2100377.3092 404074.81316 2033924.8587 -269908.95923 -14520893.687 199061.37767 -16024640.723 -10882.190462 
83684.207438 20803.019752 -71877.436322 115255.11707 -2783353.5157 -2767718.3695 -42497.877166 -20937.559995 1980973.6666 
-6700897.6119 -2653308.4082 3061450.7986 -6187532.7969 -2824092.4246 -2851378.0148 -918424.85538 -2536273.7829 -2610028.7405 
1298022.1285 -53661.59442 122394.5156 9475.0879926 54174.798425 54030.381531 8201.9452717 -64876.449207 8523.3079594 
-30813495.951 -2879349.1222 1517195.5003 -3402598.6757 -701.77049696 -69726.441141 20.8775429 -569.0221401 69349.175196 
5.4280272953 -69111.863224 -0.045974972798 11.579363918 69122.102766 69116.931316 -187.2793485 -6.3169859113 -69155.626377 
-168.52991026 69122.36197 -3.6655249578 -69121.613152 -2.7012836136 1.7122600533 69122.172409 -0.29029703651 -69123.703338 
-2.5549615858 -69122.509328 69123.825945 1.4503840627 69152.005678 -69152.781464 -50.865060473 -69128.087251 -24.381630563 
69127.519984 3074200.5393 1567315.4067 -1390701.7062 -1416728.6367 -3821.3021964 43381.460882 -24085.883497 37874.221356 
42147.700269 568171.97612 1885266.2138 1221760.1088 876805.21693 -274400.08256 66818.880842 -2102.5569522 -70610.471706 
-69451.503642 69735.807056 956.39140261 -451.12172124 267260.51919 2065883.4735 1022687.2613 2150798.3334 2261545.0264 
1509911.3195 1760941.465 3727651.0056 1838416.6407 2481908.5739 485198.39324 1560866.6585 289960.17879 600095.89593 
225097.32012 296836.7765 -56464.079069 1025.4208248 7278.2675218 77976.54309 -3006.0720957 -959477.42935 -1434347.4848 
-1895028.2968 71796.577985 -68738.470332 3796.061847 58.979502718 1871026.2277 1871124.7756 2609726.9753 998.40509101 
69343.775645 -2346.3339835 -71268.556944 -1645740.8195 -2530448.0863 198069.65214 1219858.7939 -1077292.8485 -1919866.0695 
-2228731.6071 -263885.57727 -71345.613016 1114.6489044 -2394.4895183 69429.632265 949.33592227 331069.21397 -20406.239821 
48087.089837 71540.69439 7.4203877968 -71550.520289 -5.4824932669 -5.2813961614 -1908755.0405 -2300301.3884 -2628032.4124 
-1881144.6752 -2480991.1833 71546.913624 1.2127346044 -71545.997013 0.83260454863 1.3140688521 -71545.307544 0.27842359932 
71544.732043 1452.5790656 -42272.199291 -38065.614461 -37834.937886 27233.259536 -317053.24218 -596964.79347 -49661.266799 
17206.018988 -1224518.2042 -552512.60461 -1887840.003 288719.79523 -874060.24541 -71547.306163 -3.2773639784 -2.3479533173 
71548.052853 72184.484917 1081.3588556 -71729.292456 852.62328566 -28.361701723 -68598.070982 2660.4123469 71768.685086 
-71562.120544 83.495403298 71559.93723 71542.081471 -22.816826582 -7.2124340502 -71542.840169 -1544826.4011 -1749840.8802 
-3617216.9793 -182.11836597 71230.143199 -416.28495812 -70936.778235 -292696.97974 -300507.5663 -228425.56684 -71554.323835 
-163.28135122 71513.746859 -1861700.8382 -1561281.0904 -490212.80765 -70926.265476 581.75555798 71277.937076 69611.001595 
-70272.087405 -161.1471665 -2830.0927432 -64946.956449 69610.792219 4147.8648005 4470841.911 -5400056.5857 24261.261793 
-210744.93404 192321.7357 -34921.170087 -106428.20449 86595.57165 3508455.0518 -1152325.2911 -1469500.5109 -1747893.3578 
-290866.69111 -400933.01 -1978548.5102 -2489284.5911 -19599166.385 -212446.8414 -622678.91854 -5317859.5804 -4757390.4956 
-1390801.6763 -2198574.7911 -1874455.972 -2795646.9932 3732379.0438 6162468.4032 25829147.91 1628522.8222 -4407002.4263 
-1308929.1647 -12101507.143 -20346984.363 -22964077.467 -7609419.144 -2708365.9244 -2324068.5711 -1965064.6442 -2618872.6947 
-4947474.6602 -864102.798 -907735.31501 -1517315.7646 -1705318.5985 -1193965.6829 -613127.51831 -406113.99857 -411959.31906 
-390600.99294 -2641988.5089 -2323555.8498 -1946171.9862 2723268.8487 -1465867.0259 -230764.65704 -12063714.09 -2518932.6185 
7345094.6478 12565384.104 -546635.21032 -601707.04329 -2268219.6105 -4475176.5014 -4213032.5693 1941451.7263 3297520.4745 
85966014.312 39960308.303 -958771.48906 16324016.708 11433697.37 -8039111.8782 -36932028.684 8834689.7933 -51712.986427 
-49843.117419 108742.33948 -59340.795748 -399326.6323 -9464610.7465 34952647.769 24505451.189 -3027811.9639 -180623.09938 
-17352.988399 -6872586.0795 -11807445.637 -8231236.471 -11111795.996 4645.8021494 5504.7927929 -3620407.0646 -10727970.07 
-3611324.9719 -89524.494232 -133648.22712 107095.87083 183392.66793 1518159.0796 -33847.232286 -229633.89842 1396500.3192 
-9990800.2872 1235.1157757 1385.4465632 -3466781.3437 -1381095.1225 430.27008765 320.53266899 -1155606.2168 -434699.29072 
-1.8244046885 0.98929629958 -147.50741897 304.57876429 -6189.8457824 -1889.7115442 1767.782037 919.53782516 -0.16443459154 
2.3059109477 -28.950289666 6.9497012961 -36.403840763 -38.189391148 -0.08584596855 1.1442820215 392676.33116 -5596.7270498 
6.280127699 -6.2727522574 -590532.65493 -668270.47461 169.07780137 164.93999819 -559289.6645 114222.79633 -15.506673977 
-239.82172493 2.9973153546 -0.50818328867 -232.09917764 -20.311770095 -81.170361632 -100.36716193 -1.6228808365 4.6849842513 
-0.79246900391 0.9481496014 -8.4391056685 14.862419625 -1824.1598081 -547.12896598 -38.049653796 -36.346750957 -0.95342607005 
1.756776569 -2208994.8898 1137761.9448 419403.86715 1932.2446487 5495.1287822 3586363.4576 1150862.9853 670184.72899 
595110.83215 555502.38138 -117818.9231 -341234.81905 6369.5875589 -160.05079391 300.15192031 9148.3333017 5103.1009978 
305943.29587 -1368066.0141 33.77733414 232.50295614 -106208.39597 -183261.47303 -1510601.5022 55478.291201 -602.70139808 
1144.0724073 -1563071.8446 -5836623.0233 -5058551.8487 -1344460.0095 -1159286.7261 -4560457.5609 -5028903.0759 -1146353.8087 
-36706185.486 -2317992.9837 -2015500.4186 -2107541.3334 -233315.88366 -734268.19978 -264267.80581 -248305.62393 -1747168.3328 
7065223.3714 19605461.25 8312325.7987 3429628.7135 1828296.5875 3924233.7644 1599368.6903 6176874.7639 -739385.62274 
-8125745.9675 5177031.6409 -25385.763172 534896.93751 -11281793.436 -30551172.218 7741324.6519 -606616.83472 -24179125.051 
543237.07567 13935326.755 -17437072.619 3967183.8756 483155.16071 -15589093.639 1874961.2811 18221.98593 39912.972186 
-852281.48024 -434197.08719 -1034182.156 -1036022.7828 -3105866.9515 -4545.165128 7405.6483304 3929314.6094 -35663236.66 
54487.63892 -96605.260892 3298.2213954 165193.17482 54705.583434 19627192.849 -10179867.414 -10652295.553 -132915.05238 
-2775980.8878 -2774278.2438 -4710782.6405 2689271.1328 7317.6818558 86597439.912 -97124.9124 -8362966.1827 -82.655246565 
-27.00174632 12.984876902 66.102545708 -5.0442025891 -5.6934568781 -0.70044255501 -3.9865593344 -4.3697415016 3.3559362715 
1.3814086483 4.9963767354 16.436596649 -2.5399922244 -1.7209293825 2.8446107285 6.6801535284 3.8800082732 -0.53669196558 
-7.4676387854 -111.27915836 14.384996224 81.488172347 -723.87901709 -494.11127341 325044.05478 -1877.5849032 265796.64784 
597668.28076 3259.5580325 -561.03059816 -21.550635175 -21214.710168 403497.96251 310863.0178 608572.10491 1821.2994548 
489.71251752 -235.77465891 90.22643347 1808.6726751 1117.7752923 1459.4481724 4470.6765479 700247.17003 443451.5291 
93496.303723 2829.1039059 57707.328196 -697293.03823 -442767.607 -329230.7995 -93998.081986 -6403.3846937 -60441.245296 
-1500118.469 -29175.61536 -2698603.7297 -3067709.24 1443744.0751 2926584.4947 2668395.843 -2880.9642423 373525.72993 
40336.411676 -625151.18604 -1272054.6426 1107591.7318 -259180.4587 -369696.78706 -454380.84295 -3563.7558424 -401640.73047 
-1773.9727063 1052.1676555 2007.9970713 454432.78315 995.14555125 1851.5210237 -26.878731392 58.939426101 6.7531250583 
142.54827358 -13.708633761 11.28373131 -13.780988465 -1.0013487303 -0.28665448146 -0.61907183672 3.3690093705 6.2646913492 
-1.3932438291 295.5541596 652.34471081 -0.31012722306 -7.6221535177 -593513.94638 -301916.48395 580.7708562 -243.40591757 
521.66578025 850.08817113 115781.82805 8988.9279269 6423.8139167 11910.236384 13153.74124 502.29799142 -11094220.439 
2874139.7856 -6951449.1383 -7086196.2019 -269444.8237 -4124705.1498 -2604030.8589 -1627955.8279 1925423.5255 4717011.6221 
-22502468.881 -246475.11358 -6157736.4045 -965033.24212 -1834162.9961 -587861.9038 -2471803.4748 -2016369.7451 3608870.4387 
-6778834.0128 17953.092714 43248.168323 43304250.625 52879.046307 18299.895867 26300.897191 4699367.063 1180235.0772 
-1733257.7398 26561251.764 17358.014058 -1702043.659 -634000.20651 -1392181.2489 697213.51769 -936448.08209 -288024.14259 
-64073.966792 -72247.677899 223347.0608 -14724323.143 -6243315.9188 -10767574.081 -17986814.426 -6903920.6519 -25001658.072 
-21321417.748 -2124391.156 -7400045.3727 28105773.178 -673980.20266 -19999936.974 -7975636.4533 5938196.2135 9997889.2709 
23520394.884 8558044.3554 -6727011.2659 -5932053.426 -15550357.111 3345559.9743 3527622.7885 -21321109.422 42786636.187 
6755596.0582 -180439.49663 -137322.21393 -4707865.0419 9597720.56 -9045474.4261 -9000379.5717 12478309.982 -10835098.464 
-454767.84713 -3155293.7994 -1992192.3628 29948.362125 46786.045692 -6596188.1596 -3494.2781357 -5913811.8249 -5858577.2469 
-1781668.7436 -6327809.8491 -8089.4840417 -1650.8579564 105952.44635 
Stress%20yz%20component 1 3803 double
2628424.9946 -2706311.9214 -74230.39941 166523.1207 -3049673.0408 3146874.7488 127617.12327 -3209741.542 3192159.1875 
-492615.609 3191387.7257 -948356.92986 -181342.10926 -3858.2239649 23300312.104 -3509531.1286 1121164.3521 190556.18784 
3908.4818067 -22688723.886 6863555.0684 -5997838.3681 5325102.9647 -5859595.2031 -3997806.2624 4393300.624 -7223642.8491 
-4264.8141002 6544.2561263 9526.3733279 -11711.485069 2853.7755561 5630474.6472 -30165.850452 -8827.8608354 -7938.1824228 
10616.470896 1020073.4447 -978909.25557 -14836.824124 -78992.398631 97028.965715 190496.3984 -106590.63606 1658749.858 
-103688.41446 19941.159236 236457.51741 179421.02022 -1398071.5085 191455.45262 12063.58691 -113514.42393 -1872207.6782 
2067336.8238 4414699.3259 4347886.5942 1160138.8283 4582529.9545 5667668.1636 3085422.8382 -1380425.9311 -5782669.8802 
-4376427.48 -1132890.2526 -4868191.9452 -5968428.58 -3072694.6641 1284280.8546 -313767.12591 37682.49161 -2169729.6788 
2378917.9189 525391.01435 -157649.66763 347693.94307 281125.64829 -93567.512457 -16142.186573 417323.17819 359150.39171 
-24087.757557 -314232.95708 -314494.015 -65932.700196 43933.608638 -406463.4222 -441200.67849 -3782316.4913 -7161440.1383 
-4989397.4448 -763290.05662 -4260797.0009 -4927685.7995 -3479148.4517 2189335.741 -5776387.022 -6141353.8936 2212922.473 
-1683083.8393 -5163411.1102 -3253178.1279 109295.88809 74285.848537 103156.67261 99419.956691 -390122.48332 44241.982989 
161371.41348 -204309.10188 70940.493956 -790005.55862 -100589.84932 85321.513621 26024.362688 -707432.86794 -471045.40498 
-65508.646489 52456.350085 6562.9419067 17331.42784 -16291.76734 -1888336.9449 -2747.139103 -19002.469899 213852.60523 
2244092.7884 5758563.4424 -527742.82514 -2828505.7079 1830548.3698 1396209.4297 -3567062.8301 4051764.5412 -4415931.0234 
-772781.60624 3011679.0257 12384414.75 3192882.3969 6325563.7857 3157146.1866 332849.08095 4825895.5562 3527879.9546 
146815.74205 -2887466.7194 6449158.1265 6232777.5462 -3676622.3308 3979162.81 5546793.9313 3029486.7229 -27618.704932 
-85463.251745 -247414.793 -55915.827441 480530.91413 -21970.203782 -384916.33745 148970.35962 -7232.3228318 783918.80887 
104225.6411 -82856.490233 -18844.527177 712194.64343 461413.69722 70702.195729 -46275.266145 -7719.4047663 -17538.175021 
16829.113401 1797338.4539 3219.4934242 2676.517763 -147517.34542 -2187086.774 -5783381.9148 510139.35728 2756301.0769 
-1854036.6489 -1464508.6089 3547427.4002 -4086623.2463 4408150.7131 736922.1414 -3301871.9886 -12369203.308 60141.868122 
17391350.367 -16714630.759 13173815.951 -10128626.196 -7956580.7985 -3242987.2631 -7896768.7696 -10179036.24 -7451230.3513 
1119398.4058 1298933.4342 -2348747.465 3807583.3862 5021516.7254 -5195720.0708 -2102355.726 -5253683.6081 -5190838.6478 
-1860392.7969 408455.92563 -2744562.7338 -5051761.6866 -4955547.091 -182117.08555 2082628.5589 5053377.5064 3322626.6089 
-7265440.0783 -727254.28268 2503572.8884 4990383.5785 11221889.968 8812810.3879 3346206.4782 6429349.5967 10705844.195 
7218693.9896 -2567699.9121 -16062182.69 -2700494.5892 5696787.83 -5852621.5385 -10003187.808 10505976.92 -753386.43987 
-7071249.5159 -10194371.577 -81623.973022 -2457724.1562 2482143.4757 2889091.6776 -12172.327176 -485334.94299 467051.48957 
-1507.5551971 -774.18818264 -896.12903356 -8691550.9838 6383303.3381 10617184.641 -10884526.631 820996.47581 8449443.9663 
10163471.948 -3110007.1823 -48978.784994 9849823.3698 -4956209.978 1554807.7239 9281649.9518 -6646929.1606 -3646310.4622 
2283450.9565 -377979.00915 1655952.6816 2434111.4781 1921466.6907 877734.60436 -174112.09158 -161623.88343 117217.32843 
-53103.877928 64653.435558 -65174.692141 65058.897102 -65063.134724 65058.567024 -65059.855688 65059.211772 -65060.467716 
65048.230649 -64966.663452 64065.206651 -63593.905794 65356.180865 -62225.067503 57616.558193 -143726.4779 -2073983.6098 
-2990433.0927 1324282.4591 970887.07024 1417289.1666 2247316.9604 1429106.1694 6345.3137382 908316.6894 -172740.77953 
-28363.419795 -1356.4835021 21.201807277 -45.276021256 -2.5601513507 -4.6881297631 -0.15853592299 0.25889857451 0.24651100559 
3.0027092707 -8.8101093143 -828.83166525 399.34969769 1023.000001 2519.8513003 2806.8620679 -38172.486125 -19625.288018 
8549.273397 49320.973712 -57346.355513 19667.894892 -30087.764684 -24094.668529 4602.0758603 -1799.3504711 -58466.92487 
4620.4617384 -55678.173599 -45901.999971 -6364.7400427 8697.2762464 -28920.282514 -2315.0180643 6814.296199 -14905.376652 
-27656.889889 146.27792489 -8648.8065421 41718.582214 -58898.884759 22899.474071 -15686.989512 -16723.198117 -83642.485761 
-4570.3313049 -66228.417368 7546.8489841 -44564.813471 -16600.533606 -17361.744619 -917939.63286 2710121.0964 -1265355.9671 
1843810.5424 2495225.6229 1925509.9362 885646.39787 -173856.83327 -162769.90151 117736.46025 -53893.581132 63461.215662 
-63790.272003 63651.940673 -63656.475618 63651.983537 -63653.071294 63652.843452 -63652.037299 63662.680618 -63747.27892 
64637.500528 -65060.04618 64735.321803 -61692.822902 56628.552802 -118727.84387 -1114591.5384 -5615507.2231 662549.74066 
231054.15878 1267809.0837 2270502.3509 1414667.3796 12031.125524 944325.66875 -172097.87202 -28379.27973 -2910.7493292 
2.9701738461 -32.257873176 -2.6138103991 -2.6844286783 -0.19457807977 -0.90352272875 -0.28614193429 -4.4176706351 8.9038689037 
805.93452895 -396.87844627 -1123.3007715 2839.1488972 2987.8327259 -55973.411406 21744.112235 14540.347688 3697.9129031 
27713.475813 -732047.35357 4697092.7198 -1840813.8584 -1148174.1818 -2353473.7 -2281981.8022 -903518.86961 347858.06958 
-125595.22335 49099.787707 -51895.214843 63333.168537 -63720.912912 63641.194625 -63655.448122 63651.403548 -63652.965158 
63652.267889 -63653.084867 63643.126672 -63548.543281 64044.207268 -65138.747954 64469.144694 -61221.708763 66075.539177 
9761.3224893 3294383.0618 -2591468.879 3163447.4688 -1296895.5737 -1716258.7115 -1059820.9637 -1417379.8879 -1759412.4138 
257206.46062 48384.43714 -22413.617571 -2117.6075598 -179.17440114 -3.9791346342 -11.354895237 -1.0519718246 -0.77376253108 
0.0059422433502 -0.51326536139 0.016412192341 7.090981804 424.39339602 -895.32891398 -668.42928991 2977.2686439 1763.7078303 
143240.87314 -114312.8097 3737864.0645 -1315191.3879 -8798967.6616 5172363.3953 -2598338.3357 -7095796.7512 4382381.5656 
-191923.47913 102047.64632 -887226.02429 -1202595.9132 -2379144.3399 -2286320.8278 -917179.26807 329510.20908 -120130.6469 
49097.523354 -52511.387501 64963.139922 -65146.837294 65047.45152 -65063.30751 65058.164917 -65059.796492 65059.717441 
-65059.668849 65067.356637 -65168.01842 64659.29242 -63562.282052 63801.717063 -57874.478115 69050.290395 -37552.272582 
2194522.6983 -1104262.4012 -226656.85023 -1161682.3515 -1748522.616 -1052073.0136 -1425923.2614 -1761604.5936 248324.81695 
49947.974309 -22871.774416 -1265.9229774 -170.11889608 -4.3108066643 -14.617767684 -0.71787432461 -1.1050581314 -0.14370865564 
0.069517438167 -0.39121223144 -12.239452395 -424.02088205 833.14161111 450.93997767 3284.7596668 2330.7059795 5624.7297583 
-50689.604443 44889.251426 -38550.984243 39489.360611 -24443.744984 24073.794437 16096.300759 36478.598911 -51794.374686 
29468.678655 -8371.8733785 39213.651045 47567.035759 13713.227091 -7802.9630983 29679.324079 2071.4142398 -5641.0406821 
18040.904274 23831.831407 2244.1624032 725.37272428 -47587.466228 46380.247593 -20564.702355 15290.335345 15819.749308 
33310.205141 -50194.643271 34961.543775 -6364.7493329 46526.563363 20182.282414 15772.212828 1397328.7001 -2814516.0455 
3700904.8845 871.54443062 -1325.7622566 35681.131095 -1656.4124077 14849.236874 -17034.020348 1846.2449468 21014.535712 
-18531.102444 -2539.2595457 14419.672517 -280515.86486 1089670.6915 33791.484586 523433.79934 -1091395.9179 -315963.459 
26690.114218 -3980.655653 -165953.3134 -11928.57744 194315.74271 -301965.26409 -54567.367396 -121643.5105 -44331.406719 
6454.2954049 -47906.696801 34701.158872 -80331.51492 -452421.34685 208504.72258 -203922.54752 1170785.9209 1974114.7376 
-1668874.9904 -3224880.1546 -1867589.9957 -215653.33078 278699.38271 1895422.068 5658.4879616 2601033.8769 2655920.9689 
-259672.46715 1996672.8625 1050653.4716 -16016.794809 47171.11153 -2739705.828 -2970902.347 -996553.98318 -1977347.0068 
-43839.439017 47029.249316 -1524615.5051 -14.186554168 -1209.945623 -693.40140969 1692672.0487 -37514.239345 -129044.82213 
71064.005009 41400.196838 -125575.18129 -1875309.8411 -1027324.3621 -424413.71211 -1639732.7505 1196605.1701 2232773.6728 
1744362.2257 477192.13882 -943852.43611 3291.9742202 995322.28525 150144.51131 93872.983055 153711.97706 198834.24666 
234969.1628 -70704.543113 -128334.76262 -1560.1996823 345126.55939 710.59447412 -211609.53906 -153693.3798 -180910.55075 
-252302.54084 -330275.58242 119708.67794 -327419.12471 96182.560887 136144.63805 344491.91396 518102.02526 493166.27146 
-403716.32266 -436555.30564 -1086594.5308 552561.74041 1304484.7472 -403964.70681 -554096.71035 3201367.3038 4643039.7392 
327077.35585 597657.56137 -1287695.2288 -69954.759934 -65000.354947 1553991.8684 -1036036.5231 -376629.1364 -71876.494394 
1307966.0571 74792.741026 2498573.0634 32483.160937 -6826137.5505 26514.589986 97775.509264 670570.77425 -370653.82418 
160020.34261 -222153.84658 801279.43117 937215.86487 1713644.343 6233612.0796 137250.25547 -4403878.2479 1872776.6333 
2192336.6081 -165264.09639 92040.97986 -95680.425477 340444.12329 186950.5212 1159263.3301 608515.43568 1517079.5158 
-5042393.6369 -449229.95935 99457.657905 1079751.6224 -85223.556183 -228973.98393 324972.54375 -3441703.9548 -1169440.4243 
-784732.23496 -310684.51831 -3313286.7888 143522.58245 -140205.04724 1096603.3634 608885.19832 605715.38618 -56243.345919 
-386230.828 -312677.31204 -1179019.1287 -187689.0364 13100.09781 -1251972.3816 7416035.3331 12739857.438 -5874557.5584 
7753450.8257 -5098714.201 -2284026.9785 164606.26328 158482.21633 2588907.4212 71306.524218 212551.21227 -57013.51653 
-387264.11675 51454.480096 -274925.61932 -143021.7353 206394.87338 -181748.48317 -595428.7889 -719214.77431 1676386.1835 
2690131.9692 -134224.1413 5333646.0196 5545163.8687 3357533.6356 3464771.2281 2575276.1055 954845.59312 2126185.8075 
1799313.3481 292804.4109 5058294.7497 1318273.5094 4704721.8878 4130396.658 796334.4132 5801478.1719 3250018.76 
-346211.62712 336976.89358 -500084.39212 61068.137561 86471.301254 -285037.94401 56579.511478 21484.129236 -39720.483789 
21801.183097 -314646.74479 618089.09762 -24394.798697 45081.023436 605523.3703 -444021.06644 -27108.975839 -9975.5599814 
192401.11898 309232.38555 2126038.5422 1431629.9221 2782771.0025 -124826.14231 -1277828.3199 -1953432.6297 -1617954.892 
-1080725.8575 -382797.60546 -384591.90932 584608.65701 -219963.56301 -1116330.368 -1093995.3465 -684913.83598 -12052.140534 
994595.07424 1224379.9936 -520145.68142 381600.26291 -4231483.1957 789214.52294 627697.6664 806476.79201 609111.769 
-137263.45294 -386846.20578 -216546.04041 709103.00225 8602.2967005 -377706.93265 -415962.77293 -56993.665447 87540.9006 
-602924.59771 214599.96815 166164.8468 42592.560453 -58734.010049 -280524.40112 -377539.91368 1022780.2899 739312.27258 
308148.58272 164459.09017 96204.467463 -63158.440612 -350135.35794 104436.38418 -174489.16548 27010.953337 47617.271822 
584666.8397 583124.54005 148667.31341 -726673.18055 -2195750.9428 94967.415293 677575.15961 1006920.973 377251.28746 
133091.52302 733202.56587 233756.84334 88581.042144 233385.81209 19397.11744 94909.727819 292239.85844 -1130612.7056 
53145.710855 -83081.321041 -125121.40108 -276303.52185 -540529.99745 -442461.57558 393120.07737 2011358.5328 1059762.7526 
-607109.07592 -1596178.6394 -7825.0214774 988840.6449 -3390611.9356 -4294314.6786 -310143.90715 -564209.5768 1078855.2569 
79276.967982 85003.357513 -1215590.6373 1081128.5599 382140.93071 63256.002592 -1300648.5963 -436389.93752 -2306444.7149 
-32687.519121 6841390.9878 -13769.484468 106070.05748 -318049.52786 359372.57347 -134388.28603 168277.39422 -794647.80808 
-679930.39368 -1928307.2144 -5637731.852 39263.974483 4327084.7402 -1426483.1224 -2369099.0947 -55050.142936 203933.51362 
-272939.6654 235744.16302 -268355.62828 -1434642.2543 -1402448.0318 5094017.7994 -1541244.5237 428228.34375 279945.20727 
38029.79377 -2325108.3646 -1973498.7923 -563268.39495 -655093.06141 -1552185.47 2115288.0687 4156136.2957 4247522.7632 
293691.34882 -44236.865792 -420215.13187 -261311.23857 -504113.41332 314427.22932 200314.64654 1186325.1571 333263.62222 
161206.76692 -5733.3153922 5889777.5616 -12680078.126 -7354358.8864 757261.15566 5040624.8096 -7877014.1922 1983499.7814 
-53199.327415 -14375.172461 -2937633.7414 17554.144527 -2435697.1527 -2256911.6235 -881184.11802 -1809638.0058 -457414.39593 
-620806.09237 131573.39733 -50918.642759 53300.433134 -539860.67574 427277.08913 -3012722.2377 -3135975.3795 -3446944.8016 
-3863532.2674 -4511277.2999 -5430026.9652 -3967445.5649 51849.088911 -232928.04328 265355.8335 458179.55686 -47026.108701 
336214.3104 151756.55073 -474702.18891 490693.77654 826509.01965 -327531.39899 381668.63788 657123.85578 -89283.316427 
-65109.11256 239135.92613 -13289.911406 -58022.855955 40853.044105 -37240.22586 -481970.66203 431608.91839 2533511.0456 
-6312069.0292 -2447866.2308 -5420633.0669 -3946249.1671 -2794179.5673 -1440258.1005 1281876.3865 127638.53284 1921098.2962 
1065756.3588 1613333.9821 386805.78301 390013.35354 -573675.23057 946646.2072 35969.473726 417091.88325 773974.68384 
-579028.27888 -811944.06984 -701425.67294 583230.68842 4262432.6622 -210975.41871 -45176.524857 36877.479284 -100847.64072 
6445.7535375 -125478.60312 -1923059.8597 -105308.29227 -597726.30516 224982.66549 -613456.55136 -1028378.9104 -154222.71384 
-242937.69193 -144889.44362 10360.829468 239228.94727 18810.802678 20332.290009 470017.55019 -95246.421356 -172094.61151 
-250608.83041 -207613.35462 20513.704917 -355766.23862 -789444.2271 -726826.29392 65793.748476 559752.74889 -9925.3262888 
381745.4301 -157266.36308 69694.335269 -34785.007692 80832.1771 216281.04453 -771372.94373 -499307.47994 789830.08054 
-121802.05509 2252851.3392 -645156.17575 -134602.78323 -967186.03457 -155603.51735 -360761.37502 -736193.28064 -92997.077489 
-363649.25668 -91139.871197 -405455.19746 40283.181996 -263214.58969 1101718.7202 -66100.47403 6650.0661161 -28580.96171 
-49635.345332 1801.5772341 -25394.120026 120474.70819 -3443377.8688 4946861.506 3422595.8145 -4961757.5997 3122202.9378 
14504354.394 -21180.901762 -14548970.39 -3148883.4243 1092615.115 4454817.1493 -29718.481383 -2472728.2824 -851696.37066 
-20327.035694 -1716589.0368 1505033.5676 95206.594457 3650807.994 4718460.8932 -391338.2461 195664.80462 -4508637.2216 
-1135511.4054 843779.05683 2474653.3959 -1347460.0576 1841152.693 -4451714.9812 -3676749.1488 -3690268.2115 -12843439.166 
6070640.0847 -7361648.0539 -18265007.289 -17261146.455 -9714521.695 30915.446446 40073.273521 4586703.215 -6075078.2252 
-580007.21864 28307.918655 -2889214.2008 -3278719.0271 3017249.132 3322492.3217 -658544.95754 -446258.95932 6915061.6734 
-1060026.5636 1578990.6176 14428218.144 -12937663.822 13978982.999 1366216.5851 -1820490.3051 -3468038.7071 -935945.9513 
-4676981.0071 -254135.2003 41290.879537 908975.31761 -12195743.654 1510025.0906 -3865845.5907 4590840.219 743161.75422 
6912090.7945 11206355.905 2450291.5813 6313361.3358 15604403.95 14692939.625 16709383.274 13473410.008 12153518.345 
-6410841.345 -17085717.015 -11834718.981 -8061372.5988 -17684769.56 -274508.57113 485003.09913 -517340.65845 341751.82838 
-362952.94051 1459.0395253 -1570.2293831 223863.35476 90848.051771 -78664.653649 -50153.57302 355214.78013 -687617.18186 
-1239972.355 -234717.63819 430030.44841 138832.98203 -256042.88463 1451055.3653 765476.60589 340350.05637 -481440.65047 
-167515.47782 123206.92439 -183560.12532 352511.34718 149595.60114 45702.470214 -439714.58985 4292.5810115 104356.84345 
20416.915402 -312110.66363 109817.11572 342615.711 164823.50634 449575.40557 577678.79702 109139.33696 -66469.663666 
155709.95824 6947.0684108 89577.842743 -30520.139126 218810.16351 -205842.82383 -416815.56492 -213604.82413 223724.56987 
-559666.53154 55710.629367 -118353.44689 56982.416412 82316.318975 -18853.307164 -153533.89455 -24516.104474 7135.0233425 
323993.37406 147634.60523 102203.88785 629.96018812 -1600.8495948 -1972.4336841 3044.751904 1912.6936592 -552481.99802 
-420040.00783 -11787.404834 3126.9045508 16527.978673 -73.905299741 567759.25446 420470.46288 -963.43280825 -17485.957092 
-61474.471037 -494304.14347 -6397.6096734 -25075.79744 -402797.90834 7517.7049525 47542.567559 31330.471134 1364.3093769 
-2056.3463098 475601.39495 64482.999588 414645.43437 31024.323816 -32558.869265 -42635.647739 -21742.79417 1077.7761078 
-463757.04474 1731.9151685 5833.5636555 -316.25062696 2081.2528702 558233.74691 -3727515.5969 -251914.25679 2880.2726852 
-6604.6568591 -785612.85907 3259388.7244 -47941.390051 18830.224269 11120.57684 -11095.742571 -200873.35571 -5648.6454255 
13730.234332 -24758.988726 46505.156854 192416.56972 214850.42179 -14537482.616 -10884211 6362434.2786 16288339.628 
-3648257.1857 15945315.546 14356675.421 -2844302.5606 549.77019305 -133069.34596 -2994.3573807 -8750705.7197 -78461.141172 
-21451.948177 -2921253.2293 1061.3513409 20784.026926 19102.050686 128.23156687 6.4368410759 0.65378802955 0.68784451129 
9.976312046 -686.13904023 -15096.473423 10153768.869 -6643635.6506 12594.149566 1432.5379965 -1168604.6258 -331040.34944 
-1933368.9944 -136.13782672 5.8114559873 1.207798136 6.14666583 158.90799266 14491.551878 -6742.4716866 -3883344.3486 
-730.08910104 -34787.373975 -1046687.3875 -1155955.0891 -35754.208416 -7050.9570202 7349.507031 140.16473573 17.651801616 
-158.81980165 799.39659557 -333805.91418 1.3961211256 -5.8935376827 -2045190.583 -2405.8181128 -14055.30054 8270.3155052 
12523.392582 9376851.4311 -6234679.4002 -5009.0062047 5935.5864568 4752311.8287 6968973.9403 -2801298.371 724.30471725 
196569.92863 -23802.520694 6981552.4203 96821.578868 -777152.91931 132.38087949 -24.200488815 1.3314111132 1.4380759572 
41.33419259 1460.1822922 -5037.2198388 -50914.486478 -12772.860643 -358381.76138 1519474.4522 -360128.22589 -837.92754881 
-41743.362185 144.64522166 8770910.3921 128045.18407 -782409.05359 2667.0997488 50.631614321 3.9395466212 -0.8659001778 
-42.493471374 -1462.2592351 875.57278572 -25921.159216 12909.770655 -4450.7174648 -1089284.1939 4281391.1593 13244389.872 
-3367690.8781 -5951.7931961 -3261812.8786 -4931.6788453 -5558635.5998 -384247.79837 469261.61186 -3140244.1898 685534.07407 
-9055340.1244 -9634538.3295 9609346.4728 5415498.1372 -2555370.7643 -1885707.2692 -2121270.5047 1447268.0716 -2860693.443 
-2346096.9095 3772727.9598 -1467090.82 952194.29639 7819976.6368 44556.270923 -73364.485768 33090.469965 -57296.891677 
2018.2228161 -4031.567177 -3993.9906865 12828.79956 -2597.9144747 6243.8110423 -15203.567132 -28255.724738 -3284.6447378 
-10367.621769 30259.732197 -21537.384221 -4752732.6937 -5175998.3796 -2873977.7473 -2050051.9497 336054.4564 1337188.2675 
-1090521.4066 273050.07243 335212.18507 -644961.48138 380997.15147 -1032109.0436 -328396.07045 -7712296.4402 -5576926.8146 
-10857621.915 3355160.785 3184660.1 -4744706.4221 -7632699.3988 1710012.8113 -1323023.7992 3279926.725 1458291.8035 
3552222.2017 -2359489.7859 -1282436.3137 3531801.1362 857934.45137 301624.0594 -1305898.6781 -886478.33518 -623175.23077 
-1357466.0286 -227753.45668 86675.231248 -1397495.7386 -828046.88644 -473617.51901 -1194208.9554 -1169546.9411 -858013.25228 
-1051220.4359 -274174.5075 40237.797263 -665167.49934 5345.8900259 -582622.94805 -431029.94607 -44434.62678 -16210.183514 
-50132.535637 -9954.3043027 16183.010936 6532.5387882 -40625.649028 40429.982462 -18917.501923 -9892.4414284 9861.5412877 
19320.799989 -40618.54817 40629.439215 -19339.217132 -9920.6256631 9922.4872957 19310.908916 -40624.043838 40624.842849 
-19307.617286 -9922.1034221 9922.910959 19308.346742 -40623.025489 40624.783283 -19303.904705 -9909.9998377 9926.0960176 
19324.721922 -40543.555278 40659.277259 -19208.013056 -10458.24015 10269.534438 19641.110941 -42401.042245 42215.528513 
-17218.057992 -10208.069525 10747.749103 19221.541247 -41348.005556 39047.255245 -22257.36788 -5417.7408833 13730.006155 
23842.350261 -75092.397255 9745.3505672 -52254.943947 -64457.548584 -13477.766065 -64735.880933 -67333.194682 -5026.7894574 
28283.382893 -79969.491405 3560.4752832 9151.2493865 18793.380994 -4822.9463369 32231.072527 -40563.880335 -21756.200208 
23789.289554 7900.7157046 -6399.2977276 280.1561255 -2072.7162516 -16864.214723 13055.401593 8217.3599928 15354.552241 
8065.5278765 -55781.507061 -13059.967348 -82902.480356 33683.763866 -1634.1546005 -72617.582112 6749.0313571 15324.499784 
32345.366392 28985.41353 -5286.9368063 22747.902468 34370.932686 -19758.568474 5496.3303081 -2459.719045 -16134.83133 
2607551.0549 989576.08235 -1756533.7767 1650750.8856 -2114525.4834 499996.64427 822622.62803 1507155.163 1852656.374 
-632149.02265 -806518.24428 -1388129.1801 105516.98414 -223423.79191 -1350711.9293 -466013.52823 -822551.01597 -1166865.4066 
-857755.79562 -1175984.5519 -1050378.0794 33281.652638 -287744.56977 -659622.12783 -584061.78061 6251.1033567 -431581.08015 
-17878.772197 -42578.689535 -52948.959828 15976.513845 -10244.094856 10487.257391 42107.671323 -42092.237235 -18327.0593 
10813.540827 -10815.282876 19527.477318 42160.241291 -42146.859965 -19326.205827 10852.415914 -10849.434017 19339.790667 
42154.034524 -42153.278123 -19327.652741 10851.775625 -10852.128962 19329.020905 42153.516153 -42155.04678 -19331.79909 
10848.941477 -10865.254904 19310.275017 42119.045828 -42233.298503 -19429.493641 10512.781146 -10307.745488 18981.963816 
40552.077309 -40361.96071 -21404.707923 10036.797751 -10562.395893 19124.108981 39948.566404 -43202.857717 -20105.669032 
9932.563029 -23301.130831 10609.607476 24764.510833 -80431.214688 -103605.04338 72125.592756 -4718549.0867 4479231.0199 
-4008351.5451 -8728334.6128 4753661.9767 7932356.3933 11279566.987 12459491.259 -23434.69554 -21929.19474 30541.1174 
-20581.182849 -8318.4662066 1987.9037434 -13979.704793 -1133.3589124 -437654.27936 -469511.0807 -433831.07136 -443863.98041 
-1141776.2705 -1688026.2273 -1141558.8889 -429383.56253 2559.0619618 59.383917887 2191.901617 -1533.9117401 -16168.234808 
-33851.327228 -13998.735483 -794.95190132 -13178972.818 29502762.564 -4282654.2823 -7760990.9142 5729355.8056 -3962666.028 
-7990421.9421 -6197415.9658 -4017930.9664 -397335.27349 -395312.04161 -421428.0281 -2284.380724 -63735.805728 -5282.5343584 
-420558.78004 -9688.7933759 -8124.7295116 -126425.31494 -15830.179204 -18596.111531 -126601.498 -2254548.2412 -2336793.8649 
-3537315.5949 -5775285.8709 -4846678.9623 -3524811.0903 -14638.406809 -14540.1309 4916.3643567 -18349.223294 -8092.9641087 
-77291.182332 -21063.984697 -27389.816987 -17351.356397 -32000.769537 -23062.027633 -34222.587345 -8110.9177921 -80405.208462 
-44810.368235 -34221.34912 -20564.901353 -57025.268025 -35062.634032 -3942.4796471 23459.457101 -28342.697271 -3546.1404633 
-2850.3120136 -5.3298634359 3665.6929253 13.391998011 3018.4628528 45.908903518 -3605.6555992 -2944.1513039 0.43777042593 
3618.2159303 1.0705233584 2960.2534619 3.0236653692 -3613.4324315 -2955.242007 0.96335435105 3616.7047447 0.15884531218 
2954.6954196 -0.58394259905 -3608.4912129 -2961.2201871 25.176788698 3641.2063486 2.1003677633 2930.7418006 -26.009385945 
-3465.8509352 -3095.643118 341.69744311 3759.2859634 2841.7024433 28.865438753 -363.71023932 5979.0466735 1606.1925618 
-700.46655596 -4015.4101166 -2450.7893089 128.19190478 47133.070551 -5032.4023149 -32783.557157 -68646.169564 -61810.634774 
-51425.646981 6773396.4483 12763153.387 11259800.819 2216752.9474 2131359.2363 -2823917.1395 710398.14077 1282314.5182 
-2096336.6468 -658297.19511 287423.23783 -123891.37535 -6461.7277195 -2418.1022183 168.59923801 7.5203836521 -3.6375321652 
-0.085601562371 -0.030239430019 -0.40732307455 -1.4847344956 -7.675108818 30.987167951 55.843571867 -92.829678425 -310.67930589 
-241.93684029 5226.9697471 32075.899486 1502880.7044 102341.96113 2879352.9925 -61192.950732 -15358.904635 -278676.44772 
14553.645825 2550555.9366 3598295.0366 -7518631.0743 -1106411.1668 4972760.0354 -1684819.7684 -1630471.8044 603018.9166 
2740758.5122 2403517.1181 2700787.4307 -1530856.5605 -288415.87982 1442531.5673 1020766.1597 1547742.8756 3016629.3524 
-1245250.821 384631.01296 2214954.2243 1145964.3601 712827.12186 986252.54292 -497773.02888 143125.1176 16617.396605 
265281.37341 -129837.7766 89930.121918 -119159.72541 -94246.659941 89312.328021 57716.43266 -152523.55099 152891.92973 
-78274.476018 -94008.150308 93952.215989 78070.637539 -152347.78671 152341.40241 -77925.088095 -93984.949102 93980.127838 
77911.018714 -152346.9444 152346.56369 -77913.297344 -93985.137636 93983.576426 77913.028661 -152348.88053 152346.12766 
-77914.016237 -93989.198018 93978.308431 77908.409931 -152387.72721 152338.89283 -77899.702965 -93159.513141 93825.148997 
77939.826821 -154013.26288 153454.7146 -77141.941056 -93673.903973 92793.2845 76234.079345 -151506.4944 153400.09022 
-77553.902011 -96285.937422 87968.780083 77491.369921 -102376.00385 193740.35414 -50318.978051 85571.265469 2056507.2072 
-2177997.111 -261045.40332 -3779268.4011 -1275626.0863 -551052.84534 204894.69832 -2730323.0333 -2267883.6258 -2333296.6244 
134123.96559 -2549530.2026 -1019374.7568 -667335.65315 -670728.67483 -407916.88245 69077.310673 -124322.49982 81302.200968 
-150669.12605 151199.11 -94046.325255 94199.962751 -152432.99421 152358.46151 -94002.623103 93978.908452 -152347.14874 
152346.64422 -93985.366583 93983.887186 -152347.18426 152346.77696 -93985.704071 93982.97334 -152346.74083 152336.05719 
-93954.664257 94017.932202 -152204.4287 152786.80639 -93567.332336 92695.429108 -154258.77951 153166.54508 -93760.260734 
94488.584313 -141503.42051 158781.94876 -82581.032249 753552.1304 5068.0719947 9882732.5937 657186.90842 15137.316415 
65522.944283 4361.5290249 570.41653944 -1971.4558321 32.833636602 2.472583181 0.71708170222 8.0705599281 180.62676232 
6837.9042679 17668.290701 15989.820334 -12971577.306 1531.6268286 6879356.2651 -804.81109386 3900.786197 1387241.4003 
23714.33865 6553.6764701 -203.25853782 124.90093034 6.5131098819 0.15783958878 -24.722390181 3033006.1347 940195.112 
3010.6366515 8679.8753 -5044.096731 2929013.9063 2610.9109067 85.392587945 6.7292798432 0.93779798767 28.708193415 
938998.73016 1374605.81 27103.616485 854.25488122 534.91147825 -5092.6821316 -11622.611567 5432806.0072 -3156020.188 
2274329.4159 3538.1082878 -8794063.42 -4558.2182492 -6113069.1225 39635.117704 29701.109054 -16525.205418 6699.4278265 
4592966.3539 -4232.5096864 -494388.44403 454486.40773 668756.0197 74085.370947 29.806336509 1.1844538737 -4.3315433017 
-229.61100044 -1212.0118844 -2721.001437 -9176.3420354 -6251955.2531 -627660.2039 -1607937.6161 446136.95725 661553.03755 
73853.56845 -292.57589857 23.960267356 1.446934997 5.4340012881 243.49435179 1283.1458177 -639.28573053 98.015237655 
-623.09947753 -11048.338883 9733.9333843 41240.273664 10166.822078 33947.327403 1986930.761 -3906172.3072 -763439.87724 
-4307292.2278 -3129774.0138 736750.59266 3437345.7641 955.96549423 8873.6843013 32279.151866 7383.9804718 5370048.794 
2191789.14 -3013645.5095 -1521654.8705 750177.36334 -5341986.2805 -301962.62111 -3721362.7698 197637.058 1028858.6818 
1930052.4308 -2983489.2674 8054901.6294 -488390.94023 -1929468.8519 2815542.5677 -931.10603911 -54104.200045 -19303.278076 
12750.358328 -66546.874603 -1103184.0491 1878438.2074 815166.31124 460692.92996 -5052862.104 -1505970.8107 -6590235.0603 
15521.810282 -2765.4791254 38022.362871 1551.1577329 -10833.593843 9611.599469 -5453.1168983 3694.1443638 7311.8613365 
4957004.5989 8651934.9745 -2909589.2804 -1219700.1336 2598248.4678 -176789.32122 2943330.7437 -91032.458453 -214092.36363 
1576748.5451 333082.57303 -1363205.2893 3328879.892 6786568.3333 -2095292.1742 4902892.3993 -1221179.174 -3493612.0046 
3086994.6369 3329860.619 3105364.2183 -2278149.566 -2676811.1856 -238311.70109 -8316647.7159 1222179.9267 610800.47964 
-243284.076 -744581.7346 -637872.33339 1526897.5107 747133.4463 302222.55644 1253802.2975 980584.38378 404075.69857 
1256728.8999 848705.2848 542860.63686 1131139.0159 524174.53619 1096716.8538 757286.20541 118663.36204 -279527.47311 
315971.66737 35194.215771 -20596.933945 65583.471662 44467.35875 -42207.512051 28976.544091 10870.958441 -11233.049629 
-18407.160202 42170.738743 -42147.59281 19314.958856 10862.64884 -10843.597878 -19272.141631 42156.032144 -42152.467162 
19335.109805 10852.591618 -10851.730393 -19324.543808 42154.335266 -42153.753043 19329.1774 10854.478971 -10851.737311 
-19327.038432 42161.750616 -42150.759578 19340.898667 10914.881395 -10834.705795 -19254.759518 42216.975673 -42300.498079 
19601.441819 10165.292796 -10418.390175 -17235.006526 40431.753397 -40087.087292 19659.088874 12629.89892 -10248.022874 
-20164.361819 42957.536268 -50235.646187 19743.180557 38551.613068 -52223.777364 25991.385311 11443.297674 -45632.744867 
23206.448517 3258375.2697 -4505881.6314 -4552776.3331 -1554535.0314 743074.1864 -6050373.3903 -643054.56598 -1092582.0374 
-1953874.9037 516561.59538 1196539.1839 1334538.4554 -638270.33878 -708158.23682 1652574.626 311136.90191 741016.10063 
1332824.8858 418131.22953 980900.51254 1273784.8673 545271.24482 854909.66613 1114183.7101 1093359.4463 529576.22074 
764890.567 -275987.27893 115434.78612 313117.03881 -19865.467839 34480.432539 60879.68985 -40694.166576 42589.653161 
32462.416497 -10206.274822 9962.2061295 -18072.39936 -40604.328607 40644.793466 19395.653481 -9910.6758592 9933.1936843 
-19238.186442 -40622.256814 40626.280324 19313.623958 -9922.671997 9923.4281037 -19303.730664 -40624.138058 40624.192024 
19307.334479 -9922.5202206 9920.4269239 -19308.012461 -40626.378963 40617.290942 19297.249771 -9935.0321113 9863.2157202 
-19375.497733 -40464.104562 40574.898969 19062.630844 -10295.699424 10556.788283 -21387.503026 -42615.394075 41615.979707 
19111.753503 -12366.521447 13509.628475 -17361.034992 -54840.455975 47234.540884 8412.0167622 -13563.997835 -40044.125905 
-1033.4479548 31402.223288 -111910.13975 105014.74351 -4112.0949456 -2394.6592752 10794.7975 -6720.4594998 -7970.2398414 
-18250.343929 243.29825566 -18422.532391 10445.303334 -27435.628956 42009.244983 -21302.8373 -11540.986968 32464.41225 
6202.2930735 -21594.766445 -7519.0158242 -65078.382816 -16658.009633 7060.3854473 -11014.400239 -23069.481076 17240.652631 
-49924.762314 -6993.3045867 6202.8819413 -17050.619776 -71413.595189 23607.326871 -13137.670933 -3260.1098541 4856.3731699 
-19726.926477 -77468.019842 -395.1900621 -33260.409521 32500.562358 9953.9416413 -48388.691883 -41791.222682 -8901.6092765 
-10446.18603 15362874.368 11416949.702 4427965.6194 3998408.5668 -1891240.4676 2661248.5047 -21013398.452 1548549.7574 
14783.101906 -599.22378196 -32199.1236 1816.3140653 -2378.5818077 -7882.3111634 14060.893926 18037.922859 6146357.4942 
3618507.843 5891205.1829 8160133.1656 5355055.2911 1367027.1833 5388786.7546 4035527.3425 983233.47064 815882.44829 
980728.68032 1474997.8441 2316349.6676 2359422.0875 1413161.6346 646862.12834 653575.0918 274164.29603 211076.13133 
117759.07449 113136.95582 289005.07804 25608.242152 60004.171593 22928.221586 296932.50393 144850.65683 146448.34941 
295771.55718 133.93264926 5668.5211555 -1141.021072 16701.831759 15117.716773 15564.462189 16676.091608 4934.2941471 
6721.760562 304.4012139 -2597.9018056 32.953689781 -3260.8535623 262.20611481 -53310.242867 -52102.276057 -67564.542549 
-33490.95517 -2650.1894503 -44529.030168 48820.08045 3000.1274173 3670.8362426 14.459331562 -2937.4488147 5.7161363684 
-3596.2632097 15.487031332 2960.2016658 3619.0747921 0.76699145839 -2954.327563 0.45077138572 -3613.4193099 1.1457159648 
2956.9273939 3614.8238842 -1.1593430282 -2947.0794269 1.4450421407 -3621.0982913 1.9318848458 -2347.0231628 30.640476059 
-4189.4023749 -48.551615052 2965.9059788 3614.4857814 59.840563098 2911.6760282 3813.6022454 -224.19719288 582.18367534 
-2249.1846698 -3668.1647785 330.8396027 4761.2407165 6194.1330377 2786.6974107 3605.9448754 5845.5801961 3524.9204367 
2163.2941029 13326.57114 6130.7289263 4484.8813247 84019.984984 3980.5450308 -3881.312831 21648.38962 -52073.210933 
-81757.178034 -41721.448993 -38434.085359 -57952.742827 -87484.091346 -20364.84517 -5344129.5728 -12512141.339 -11212650.662 
-14974343.353 -15017742.507 -17235892.601 54804.472586 52849.167827 3278.265135 -49658.804401 -33016.865441 -9011.3010245 
1020520.2711 -4403020.4502 340929.27722 -255032.60521 -215090.32496 -4247018.083 -3616678.8519 4525827.988 3572462.4243 
2766047.8058 -1900784.3379 -758950.22128 -697962.49428 -311205.82924 -3282350.3194 1461234.4978 -477585.43417 15912416.569 
-3398039.1509 -3372461.7249 6843362.7382 -1899318.0934 3842023.2923 1230868.3702 -11870823.268 214.19433873 4768395.7646 
2122459.244 -3273875.6042 -2601643.8545 -2129082.0533 1500762.0979 -669158.63612 -125213.47699 -6902.4103838 -2248.2093931 
-14.038095037 -8.485108669 -1.6208598462 -0.33817424781 0.23231355301 1.3947769631 7.2045176135 -32.640052724 -67.448468778 
49.486646844 658.13143921 -1324.4042065 1778.9861223 17735.486918 288178.59406 -906953.78641 -122130.05393 2807256.5323 
-15667.05805 612540.04019 -2286803.0594 547909.77135 -3598762.4224 6346267.8333 400672.03783 -5646421.9299 1481672.3334 
-1731351.067 4328909.592 2674431.2868 2348900.2727 -1305259.8192 1409347.1394 -298224.73669 1047523.4887 3016079.785 
1546600.9616 -1252539.0322 2202370.25 386171.49239 1127172.4799 978423.70175 708559.15927 -508231.2089 16374.678837 
143922.40551 262958.27136 88595.012629 -129102.40792 -119909.93471 89674.334132 -93213.624085 57654.172162 154365.40134 
-154119.68757 -76605.965306 92627.30069 -92717.365617 76486.722251 153921.97049 -153935.8032 -76342.55617 92669.69139 
-92678.603687 76312.702969 153931.81452 -153932.59903 -76318.603703 92676.136861 -92675.826556 76317.590697 153933.08403 
-153930.62237 -76317.119803 92681.434861 -92673.317693 76322.253975 153938.9202 -153892.94307 -76331.809043 92824.782378 
-93532.675253 76284.464723 152828.13932 -152377.76769 -77135.4405 93704.022907 -93119.9866 77965.131611 153219.87642 
-151666.29806 -76694.218473 84828.696496 -97149.931396 76204.427548 165541.94941 -86959.796447 -84499.759533 48086.850994 
57511.953245 -1015539.1798 4230983.3213 -3874527.9602 -1329807.0542 -4043587.852 169123.79736 -600211.54893 -2290192.439 
-2760235.8432 110453.20455 -2337056.0884 -1041991.9945 -2567193.6328 -664832.44484 -680901.41825 68420.034861 -407891.78242 
80635.396741 -124354.88039 153030.83616 -151369.99703 92927.649726 -92678.235708 153940.34479 -154045.95986 92666.144128 
-92700.177813 153931.47477 -153933.71559 92675.705339 -92677.937445 153932.43062 -153932.41944 92677.053503 -92675.223397 
153942.54762 -153932.69991 92635.773624 -92707.763035 153479.82227 -154077.54785 93847.201826 -93172.003784 153094.82026 
-151729.52053 95128.095307 -93854.179425 149221.49624 -137275.29855 -102763.59548 -407.21733838 -9806.1256889 120.59996209 
-6322.4023429 5178.2859287 58535.676795 7480.932204 39252.007312 -5054.0117901 -13738.381418 -12251.133156 3494.9200308 
13526.711598 83904.450789 -129608.15598 3785.7967067 35411.846156 -24950.389861 -906.71871758 32283.884654 -76692.93846 
-4463.6988644 26342.224674 -29514.117151 2256.220094 11120.2666 14581.581977 28793.141167 103371.01577 -90782.381091 
15554.21787 -40379.694393 68583.978184 -49087.726114 -31486.174963 1134.461964 781.57603257 -1189.0818679 4189.2051484 
13468.091384 3873.87278 -729.68208784 16988.199045 26865.25482 1260.3115725 -4302.1279391 -14365.15604 -24153.246793 
-10598.619872 -3002.6593934 -24186.348771 215.35630481 -36122.420094 -17657.019586 655.97419072 5106.2995454 26943.688374 
6214.2333161 17193.477071 34882.419229 1273.0291674 1640.9866082 -9491.8824718 2507.0865072 4590.6597766 -394.60892537 
-9717.2296362 -40668.075207 679.31712827 38494.655533 -23962.894934 -588.15466769 17624.238383 -133916.78717 84770.174201 
5859.6484789 -27298.362154 38806.341795 2379.3359553 -77747.945864 32706.624773 -11874.31041 -22808.449984 16173.352026 
5906.6081835 -7256.5616905 29493.597956 23394.224482 -95732.130914 113495.87338 -40405.970943 12179.932199 -29753.679881 
81843.365265 -12512.32607 -9027.3472103 -95788.9585 67150.949607 78760.415568 -34491.743045 130840.46509 -23758.231871 
-86772.444107 -2223314.1377 -1096686.4073 -378086.79635 -57974.268564 200701.10761 1931865.6101 635633.28226 -170543.99846 
219809.21257 399204.03682 137106.68322 162450.84655 -417097.91025 185611.44519 235688.92817 -8982.5830484 -166711.06489 
-384091.39885 1738256.3681 -579929.14864 -1837012.0798 472049.08374 -558771.36307 -251237.30435 1982935.4407 -1958177.1774 
72585.374712 -29817.161045 38736.883955 -162847.82474 -21527.559542 -32703.312814 -248880.83668 216933.61473 148130.84461 
-213446.94276 -400918.83858 390245.26836 229.00298535 6470.9542955 -35988.931975 -7970.1330724 236991.35513 134291.91615 
-77008.861092 77141.700394 -65031.6813 403215.94613 2092711.5815 5351971.539 -43969.231688 -2149619.5787 -519865.6927 
-5405486.0194 223351.06468 76934.484474 861797.85117 110214.68266 -97177.739219 6137.51557 738158.0429 299160.95155 
-285888.00295 94928.829268 516688.80749 -169958.74865 -891303.92011 237980.08113 673949.11019 3686836.4371 -1259387.6902 
-233164.5278 3007907.1356 729886.37435 -783782.43599 -3133032.8546 -3979155.7619 -1080672.9863 3234063.6627 1898592.5277 
12841.938102 -3997098.0495 16708.200209 7910.6288474 58664.85436 -139592.6603 -70947.982974 171178.09376 59804.727732 
-48726.064302 -113948.6687 -588534.87893 -365932.0987 761773.70177 901833.24021 292669.84664 108808.6403 42749.324692 
-1518.2625563 94268.047128 423770.06856 -471156.69565 106328.91666 -136085.86297 238022.93925 4087650.335 -2884237.7155 
-97237.117507 291742.59089 -76657.068344 3054742.5748 -272829.48308 -67729.240295 1927387.7199 71874.618499 -3029975.4745 
-1976857.3678 -419817.38885 307222.49713 -532484.75007 192422.41942 -163614.95595 238710.21484 1676679.9573 1742145.9724 
409808.38855 -7771.182933 -1763803.0756 -1697766.7009 -409381.7425 86905.132241 1556909.8943 -2755919.751 2985215.5879 
630473.92547 -2924941.9857 2705325.0784 -558104.10966 565294.04121 28090.209259 -129690.05208 -248949.28246 -340042.47742 
-153979.2871 2093.1477981 252162.03517 -60917.749216 13221.321018 65048.596107 163787.83911 -601646.50261 -441582.40056 
684954.08609 442143.5824 267062.16989 814501.07171 -518975.52998 6895447.1396 -6090401.2552 -61652.668789 -5204025.818 
1417879.6413 4902348.8033 6010935.6603 947446.14035 340546.53355 -875323.98614 -14529.883156 20775.066624 984467.54897 
-6681176.2283 386657.54188 -264106.27399 -125808.60805 -991155.50967 -163269.94785 1072438.1726 83337.29541 251792.51073 
-76727.026047 -192037.18376 116889.00784 -15918.835243 -1966.1394337 -31491.030338 -936279.93956 -711931.37668 -179819.33581 
210638.47241 1053756.4788 -659873.0932 -914729.1589 -1174777.9513 -230369.21159 250480.78573 -1028041.8671 -642119.72589 
589225.62474 264234.40307 396461.75809 -775650.45447 -857577.41466 9626.0058581 36680.507767 838705.0629 782206.06399 
-158264.88338 -8336.5488719 -275863.17948 432646.08716 -13275.654499 -284459.37047 260167.3419 -424685.58824 231152.13745 
-64643.745351 -2501035.1435 2425840.8074 -23083.956621 -441451.57413 18278.650939 287893.56741 399168.76356 808373.65771 
111620.77147 7274.7932392 1071882.9017 384435.06786 600258.16468 -454056.33716 -415323.49509 -2127787.3863 3777746.5865 
-331834.55882 -42782.564609 269759.54885 235666.59429 174631.86528 925708.3475 537072.35037 -13524.552305 519898.50587 
-94806.850366 -10435.295931 130193.75889 -271784.00171 775.72961752 4602.3175485 2722.4064572 -4633390.4619 -6935228.3553 
-1844248.3524 -1460602.3021 4148709.1498 -99078.215646 65584.464201 -184257.52089 -11041.993008 1133432.4151 -823539.64261 
-738285.21258 1421302.1901 6856700.9206 1655304.4705 1681225.8438 1849960.2999 2198279.3258 -1841623.5915 -28501.540351 
-362544.90148 802789.69024 -883.02784773 -715146.86543 847062.87778 394920.28409 -110210.5906 88887.005142 23271.843914 
27945.980024 -471.29295592 207.62802184 46848.074624 -74468.503248 466812.2312 427252.69688 966213.14094 -474642.21768 
-964809.63772 -417903.68303 -1106669.1447 213469.07007 -2439271.6132 2277059.8347 1112878.3911 171412.83344 540637.86881 
-6333456.4632 251292.70891 4505618.9767 -146120.21307 806513.15808 3587.7989535 2471.5546689 -5545.6350546 -109875.46045 
-469596.41107 -2212739.4228 -1167447.5404 1202349.8038 31622.250462 -319771.60729 7324.9489398 10618.933716 -14109.772745 
-3816.5204801 -11758.917502 -2494450.0818 -2574724.6464 -4321.9898507 9138.950306 4765.5868332 -7198.576395 2575.2601018 
-4898.7965975 2808.8987897 1980.359788 -162334.11299 25847.348855 238127.55823 33694.699264 4100582.591 2348155.3485 
744403.71708 -2575797.7428 -484532.65199 697614.12318 -31492.974417 -5493070.6098 5900.2160414 9355.8932692 -1028615.0672 
-4696.0832166 1035659.9844 1007274.6959 -2624.1207921 38586.714253 -13806.592294 8394.2891235 -2855.8995102 9770.902966 
235610.80069 -105722.10833 344.53442768 1837.6508692 -19703.845722 5129.2140064 16147.376784 743.46555565 955574.32849 
3901.4200374 5443265.098 -243812.44127 56933.076263 -57992.981006 -60297.080335 48787.437969 4462.7381572 296516.24822 
-636954.1304 -2977.3042572 39310.418928 -40685.541966 11965.914811 25170.132516 144926.7285 -197963.34383 -370198.23759 
-2370677.0846 -1055592.2368 2372092.1831 736606.28926 10686.014803 -5861.8053097 -1272.6446255 6025.6355998 -3308.8300094 
72282.940489 161657.51404 -22424.107637 -310689.35864 5409.2563465 30515.668302 -205144.8533 5905182.1106 2754564.163 
332389.81335 332621.76361 686678.77836 -11096.756574 -34191.454434 420453.37242 65439.002577 -157836.50261 -1940044.7269 
-1894909.98 -17591.809016 -2497772.9858 -2741606.9228 -11655.617854 4996.0379502 9458.8938164 3128.8984229 -9795.1339124 
6164.6965851 9200.8608393 -11571.341397 1817.8805974 671.52326148 43248.875969 -1283.8970756 32685.358075 22722.344925 
-42709.701064 -2909732.8713 -393992.84663 470384.19467 3685.4682737 2905273.9 -579428.21838 4246543.0373 -11117.185616 
12560.691585 287.29725863 23737.750988 1971.7731499 17028.773528 -6077.8477254 45748.16621 -27044.581161 5195030.8165 
1238082.6033 4772252.755 -832442.10384 381942.14565 42699.153142 -26661.043923 1228.0267059 18456.684882 -15952.656576 
4416351.9274 81143.563549 69616.140698 125.24538966 82095.931432 -70728.033827 -3910.866324 -73669.514172 -68784.784483 
1825011.3587 -4950817.1865 -2520873.6566 609305.15752 -68.007829352 -77673.225111 50.807203381 -71582.273189 -77511.549415 
10.510741919 -77501.929861 1.844910053 -71401.123044 -77511.675239 77543.085194 157.80093513 -24.612227861 77479.86888 
71439.864074 77515.082958 2.0205645956 77513.404324 71416.6685 -0.5044904184 77515.420968 0.77597524673 77516.611967 
71418.464754 -77513.672656 -77514.506896 -71415.212446 77540.137133 77551.261123 71459.444351 -77510.983156 -71426.802808 
-77523.895446 377497.84917 214570.35593 -4275194.6805 -3256586.1343 -648.9651573 -74345.364266 -55195.167799 44269.41362 
-41555.070834 315145.40722 105557.6823 77556.399208 -243369.50566 441478.84066 76396.912615 72750.002672 78580.604598 
-77289.88786 -78086.214664 -1059.5155629 -71950.222781 3132160.1286 -216077.9076 -1028381.6441 1425441.9933 -129784.13935 
708924.4906 -1708872.9825 -667760.34303 103068.21446 70089.409175 -1043102.1018 -1072845.7985 55217.480067 -184118.75027 
56980.414859 35422.757328 -72021.228241 -76287.418243 -5486.6267936 -79433.959011 -2268.2439889 8304.6594813 -1948.3802435 
7821.1246126 77109.105897 78404.212238 71319.370762 741.70426088 1553848.8533 -327958.88266 1033258.3142 954.46258466 
78540.883792 71747.321387 77547.074351 613829.57335 -266771.73965 -4969724.1362 -4131033.4133 2581668.6338 -123558.21576 
1069406.4746 -811758.13239 77590.121605 -907.89276779 71856.448124 78538.148235 1056.9454445 172089.56964 -153245.11155 
18419.726799 -78560.657043 11.554262077 -78572.276017 -72135.239118 0.18015652318 1541685.7006 -157363.55128 1022719.7279 
-332294.93685 76874.057394 -78571.628325 0.55965303075 -78571.62703 -72147.944668 0.75705301974 78572.917316 72150.675196 
78573.273043 -2485.9082053 -75049.645792 -42618.018756 44131.602127 -55386.593582 167502.48586 -185078.94978 16511.322584 
-154321.22883 87452.625693 310802.0851 111211.1195 446120.60755 -244316.95642 78571.971556 -1.4637574305 72148.857447 
78573.51092 -78701.13814 192.47574294 -78629.072908 -72296.069585 5.0660213773 77825.777896 72407.110163 78525.442324 
78599.54208 72170.267295 78589.778968 -78574.873225 -72137.627372 23.811581454 -78562.735928 708429.32704 -1699752.2223 
-659819.81767 -150.80584244 -78789.84257 -71604.349538 -78000.013041 54838.17749 35733.869337 56433.48624 78548.725763 
72130.188049 78605.501185 108662.0533 -1074720.3852 -1036553.0294 -78335.623553 -71268.45896 -78453.505102 -77646.986332 
-77918.574366 -72539.140698 -304.95571493 76082.932777 77340.127444 69704.721671 -486229.87455 610648.33417 -30867.895896 
3969.1066452 -6444.2984494 76788.726194 81995.109108 80788.054003 139931.27158 4916.737688 34733.365406 13128.596601 
-7868.121707 15161.419186 896.625318 17918.488186 261439.33968 -2372.9544867 19995.063452 1962726.4092 553720.70097 
74685.638289 -9059.2963311 6998.0811406 -6923.7290145 2716212.3376 -2208181.405 536798.94938 -897368.90623 -211404.55613 
-3353691.3638 -7012066.8778 -7109020.51 385734.11965 -3179549.1198 9715.9166725 23889.117017 40511.308614 -10231.796605 
-688056.43358 15245.091362 34687.736932 -849.1875172 42197.619625 39611.859105 51003.299186 -9856.4463469 11672.409816 
-6057.0705096 1113.3152286 3248.1834111 3152.8965647 -3565404.9308 83282.303764 9133.0219164 3348889.8303 -1983979.429 
740.25639084 3578880.7076 511.69727615 -5476.2331195 22595.505607 -65463.750717 -127588.52227 -539528.83674 -305384.02956 
4687231.5066 -174328.84049 1786.2435583 4712691.0292 2028336.5057 -4924368.227 -4132413.8518 3777872.1952 3330.7171403 
-758.85667743 -18965.205096 -26926.541339 14092.37546 -3391731.9002 -150877.52813 5907522.7733 14715.001441 8947.0845675 
20925.914243 -645264.5731 4161273.3393 619631.77421 -3688393.6996 -3029.3652714 -442.85402096 -631455.18422 -1697.9445073 
628321.68849 -11561.788277 30930.633373 -5271.6254746 26166.875165 -397730.19631 133100.50322 183838.04248 -852998.56783 
-1913248.0294 -148.81865974 395.81430498 1153329.3433 44537.423141 236.67318949 33.760607319 360942.49563 173305.27466 
0.3652267448 1.0098879631 -46.984541649 352.52055815 1753.6329006 652.48596594 32.691813146 -80.964537371 1.5743177604 
3.5713685991 -0.16562293748 13.513057872 -6.0225553392 7.9811052176 0.30304339084 0.99181096442 -351239.11064 1001444.7373 
2.0986694032 3.3052128348 -140533.81065 -155015.01176 34.539485375 43.404573569 389761.02588 -688911.69843 -69.630085711 
118.37148705 -3.4906761356 -0.98545474918 -119.57608404 76.079834303 31.421393966 63.607083567 3.3092488816 5.6517023866 
1.3960848912 0.65715838007 19.159445011 8.0975003147 -88.376945686 147.0083738 7.5276711325 -6.4186058474 0.11443914623 
-0.20350980788 59476.064836 353622.67188 173448.93101 799.51408089 2400.801093 1699748.6032 -146241.91095 -152938.21253 
-139509.36613 399984.0572 -678218.10151 -338609.64891 1017570.9701 64.368244361 -336.92264152 -1776.2437207 -2881.090642 
99635.350738 -890213.54453 -46.375050953 -179.50779177 -5675.6700511 26333.852331 -403933.38846 130879.78003 -187.3530304 
52.044878825 1838463.1363 -2148414.2944 -59596.900779 26184.377381 -162123.23286 14182.432281 61563.413865 147333.32513 
4134750.2727 21461.128144 46639.055564 23006.299092 -7884.5271341 647.85067535 104.51602443 36552.357144 -2101418.6597 
-501565.31897 1746723.5592 -1086496.8097 -1048644.8438 -566909.26388 1463881.5745 708334.51955 -6940962.7563 745321.98119 
232145.23574 2236645.2615 15124.268283 -133696.90138 7413608.016 2372772.7465 5368478.8094 43619.886947 657049.15367 
173598.52577 3408224.751 214496.7982 -7118723.8603 5211589.5878 1946817.0265 -4664261.9788 2726.0186204 -3281.3644372 
13436.229851 12815.639114 -3920.7966133 2064.3044737 120265.69631 -9463.2689132 4483.0213206 3926323.3129 2239172.6059 
-435.43865591 1958.8012252 -8706.3188984 -44058.820074 -15015.36628 9089617.6841 -252277.71527 -119691.93395 2057.6214867 
4187.9124354 -3378.6335652 -46981.09086 -1412753.7729 3242.3171018 -5321628.589 -245344.05707 -636682.52334 8948.6313277 
15.355471779 6561.4265362 -117.66917954 -8943.6680016 -6596.6418215 -3.043109093 8949.3046868 7.116991137 6607.0477439 
2.0682104053 -8925.6657773 27.781702164 -6586.7724656 8945.1747152 0.90475587321 6600.9462036 -8942.9917299 -6600.9573884 
9010.5797294 109.36647384 6666.7720705 -8549.821301 -6438.8018345 421.70736847 18020.969717 21641.226204 6150.4218368 
4441.7088804 37.184325107 9013.2312139 7933.7125424 19076.414019 -274791.58571 164199.51364 421595.13523 538.80782958 
-8933.752299 -6442.5581128 -6210.2134532 548.17392156 -8795.1976971 25.508689801 27211.623064 100739.84848 66553.95847 
-10095.322785 -12106.329034 -12970.77327 101421.23387 66815.112745 17093.191721 -10090.706136 784.50737332 -12652.901313 
-608014.68399 -702722.26373 289044.25511 541309.61391 -593145.38421 554844.80645 246928.33741 -4463.0909711 4231.6895879 
164829.15036 424213.05644 -255858.10022 -245002.95994 5210.8995598 3069.5266639 -167199.88103 -107885.25625 -275737.82258 
9016.3198632 7492.9875709 -330.16228593 -168571.15825 7451.4672538 -494.34671125 -12.4808405 126.39383602 8318.7586953 
128.73228656 20.703168408 8344.3063057 -8264.065538 6.981353564 -8274.4129412 1.941385393 0.38218783203 8277.7435944 
3.9354442402 196.96683327 -8186.7631032 8280.0214969 -8278.9522345 1371.3404546 162120.43395 9814.0682609 -8410.9278643 
-313.69703201 -8367.3170164 -11078.482579 11644.405744 6415.8707683 2893.5389615 5112.5627927 8002.6113456 -1324599.5361 
230280.97846 2596549.6767 -2340029.5788 6874.2683442 -92318.334451 -646830.85773 394863.87111 6993817.7578 1504510.4111 
-1484286.4876 -5955.8092855 1968182.2762 1195862.6662 34772.308114 54369.515071 33205.518927 5522.7117867 -322190.18477 
1348116.8022 7070.0085685 27048.564411 3151962.5597 10573.881726 -11212.863246 -3103.7814778 3779587.9141 885053.64394 
352061.89105 57747.777827 -2399.4112865 -66024.636936 9012.6941826 42483.83659 -3186485.4248 5242818.6862 26982.713152 
20864.947989 -6179.683768 -1433.3220763 -139728.5152 -4470301.3486 -3282486.2367 2071976.9097 -1056280.5032 -2945476.4139 
-2449497.5293 1555340.641 -2261446.2 3660449.8427 75731.68979 -3799003.4756 -908916.65288 881002.34651 2600036.8051 
-2028977.1182 1977148.9564 505302.4073 -359115.38641 2038191.9595 1055741.4253 -940946.74526 4390497.0434 -3393171.5002 
-3188331.3984 6320.2221945 47740.925135 -14940.684696 -545710.49763 461221.95806 -462278.90138 -1967900.2016 261601.81642 
-37458.873849 -672405.92782 -705421.30988 6271.1845366 3661.9406808 -616776.02758 11960.155526 196182.54321 -286145.67473 
-5589007.0681 -176419.31109 3384.9969548 -615.29643799 173470.19718 
Stress%20zz%20component 1 3803 double
-4194241.5577 -4167156.2708 48137.745564 213048.0513 -3484390.0518 -4143271.9447 608199.92366 2308236.5363 2948507.6636 
557275.19427 -3098076.059 27967.910901 -213193.48054 19890.764729 72786185.8 -609620.39178 -75184.495273 -152781.02834 
18236.881566 73260301.705 -11681846.611 71933.207052 -798569.05018 -6987003.3412 -2925896.8398 -3205833.8691 5301040.7894 
41132.606203 10137.318513 -17983.836499 -11055.45354 -15182.822283 2186475.5308 23205.924587 8500.5790929 -18626.543298 
-4074899.0835 -4012865.9101 -3984892.0119 305383.51002 52168.07131 188376.97193 1182520.7184 178657.09751 -1105815.182 
154808.48048 22652.68018 1874761.6599 287561.22053 -789848.12177 201094.34406 76476.426344 2455991.0865 -6183832.3598 
-7131916.0529 -7461026.5892 -7592303.4801 -2784073.5978 -7899385.4045 -9214449.6845 -5126538.9043 16098953.554 -9322432.3838 
-7590288.6071 -2602254.5074 -8076844.9555 -9214053.6542 -5107394.372 15333238.759 1991857.004 3624781.0874 3069109.6722 
3086158.9639 2361407.1162 55768.897312 -166258.25575 447603.07973 7936.3462697 -507994.86876 314885.46834 1002345.2724 
9756.0677508 -34594.324323 418720.59591 443374.02709 -511020.29193 321316.66623 1013765.3562 1898272.2956 607201.19223 
-1192150.431 33442.049653 1646810.1188 -170981.41994 -456397.78144 -207114.13338 1416785.2004 466657.62986 -1006713.9387 
785374.6379 710131.17168 -44546.011124 78316.204476 40961.732175 34006.186015 -40142.17508 -156523.9929 229383.27425 
406396.20941 251462.57565 -422091.23138 162057.35927 308201.07886 -112971.48308 -9554.7120669 -541782.49903 380037.08096 
204475.75894 -42160.698042 3253.4051763 -25879.650414 -152056.94934 2093424.3158 18732.907418 44449.689024 -275987.31236 
-11417094.345 2003719.4062 1810407.9452 -1517677.5775 -2326127.534 -10616646.869 -15599905.397 952291.01665 541153.40468 
-3019235.1138 -10640.958444 47284963.086 -210576.2361 -335983.92691 -845891.63192 368028.65447 1119618.5733 -1349801.5564 
-499379.10393 1035476.8446 2017890.9961 -1589358.2807 836278.4599 1185762.1871 -862221.17509 162762.91305 105219.29857 
36177.136028 10545.822831 28611.621988 -111877.06142 -153981.01102 209398.54517 -48555.582122 -508160.77915 178816.4574 
310985.49054 -113001.10797 -6443.8442299 -525987.19 369034.03462 209454.95701 -36550.375746 -2715.6215283 -24197.272463 
-170301.05302 2749207.3516 8796.6463578 43168.560127 -6192.7537398 -13249268.797 1979263.5467 1826565.8002 -1401540.1205 
-1757836.2823 -10679807.131 -15568173.523 956443.94052 525259.02494 -2733768.7034 699552.43074 47194062.126 49073756.962 
76008089.568 76698697.071 -7813718.0521 -958343.62308 -6531401.1725 -13956061.462 -372433.17914 -5491834.7116 -16719177.867 
-17176944.224 -1641078.0712 -6201822.1603 -3547632.1758 -4545128.0089 6345423.8348 712526.30675 -1880048.0548 8182561.445 
-5091918.3336 804383.93915 -716581.70162 -662887.4784 -6240237.7508 4154433.2909 397722.7565 -2181167.6817 -4203640.9112 
-18649554.882 363806.73646 -835966.07044 -559061.00265 -1687268.2176 -6182356.7013 -14222737.063 26515.089779 -4747402.4135 
-13145894.672 -17029146.081 -10388681.517 -200761.29253 14531107.92 21889621.222 4346349.366 711256.86641 26470885.244 
13082088.047 1657453.4543 -5568666.5019 -3985835.83 -4376240.4347 -216793.39781 -1635180.5003 -1384174.6072 -1366756.5744 
5043.0592181 6579.8482704 6132.1122237 11241379.052 12517236.163 5816060.7023 588170.79206 17875947.766 12107772.229 
1110134.788 2738300.8204 -3694560.2943 -351352.11517 -860360.16601 -3546459.1776 12115193.241 -5153801.4369 -4543383.0339 
5530658.577 -974645.654 1541057.3192 991052.23292 1640421.141 769463.93955 999997.02133 159155.06109 -219656.97467 
-60917.071073 67534.292658 -66599.650223 66451.229761 -66458.53458 66456.99185 -66457.023723 66456.445702 -66460.448528 
66474.172559 -66451.775893 66759.545507 -66730.10262 65893.886717 -65850.659849 63492.959158 -117902.39207 -10417414.45 
9476286.753 5659203.5793 -811311.96293 2246920.9493 138442.62029 2033195.5958 2220629.465 199085.10203 327125.72422 
23093.360949 5540.769787 420.98201096 -5.2698684053 -2.3986555217 5.8835720101 0.21612843529 -0.60746073664 -0.15556935992 
-4.0771318573 -141.12315908 1021.5355732 -137.22080392 -1984.1419302 -1888.5022895 -4658.660958 -9955.5601906 111235.84815 
12911.659668 10732.4397 -55848.984627 3365.708032 -36617.698393 -28381.666028 -237072.80865 -42494.350595 -53243.814161 
-33765.773471 -53171.942 -16951.807323 -28296.951994 -9775.9194276 -95.799042531 19866.913754 -10915.185115 -5719.3146533 
18754.211611 7662.4671159 126257.80467 -24856.241183 62894.850261 -9142.8765875 27033.539066 40179.338396 96771.528836 
52988.432491 54156.28163 34265.030129 41051.441511 28419.819695 20099.653813 2483964.7362 -13369415.103 -72227.705821 
-1456835.4455 -1032397.3264 -1629034.7483 -769032.47973 -980084.15746 -149637.92222 218764.55647 60193.740877 -67606.808052 
66602.577284 -66480.497406 66495.299497 -66493.288877 66493.312695 -66493.338764 66489.229708 -66474.455094 66494.252457 
-66182.539661 66358.375013 -67153.614049 63537.618925 -71974.886338 68082.067427 15310861.552 -16608873.345 -11329078.248 
-25575.059449 -2263366.0764 -128520.54324 -2067799.3129 -2203895.912 -203068.36753 -318483.9834 -22971.116841 -7535.0169803 
-131.03146713 23.588588628 2.5363720503 -3.0242024645 -0.27367243351 -1.2622553437 -0.29023452583 -5.8070689669 -144.22397871 
986.39399267 -188.05422831 -1668.0038931 502.43164363 7465.0910819 -22442.812219 -58244.503464 -50429.758957 -15379.275187 
-749.39156543 1806188.5338 66406.686292 -2270890.8233 -138741.76205 -1762868.3548 -1363078.8439 -1436987.5614 -328197.43346 
-142953.52936 -47367.21695 -71646.675969 67339.813316 -66534.342304 66473.72032 -66492.945262 66492.447617 -66493.38605 
66492.694408 -66492.834372 66472.847066 -66476.269314 66773.259076 -66588.570203 65693.539703 -65775.664593 40416.580002 
-4257.0778421 16473251.417 -3496907.8921 -9357825.7254 -2063428.1084 402633.06658 -3166109.5636 -1682919.7045 -1085660.0463 
-1472555.4138 -1213.793491 14617.124324 -3277.5248861 370.97738455 47.550506513 9.5141057212 0.42042011822 0.60966661793 
-0.19714100052 1.1251585807 -0.076614859873 -44.428401312 -296.24302475 1069.2404241 317.40348608 -5047.7034819 -4693.6241627 
-4732.7175181 -88610.925358 3182425.9869 -4156454.5417 4330615.2559 -1275769.6369 -4935357.7803 15575785.765 -3519264.4315 
-614488.99884 166188.6322 1902800.4468 194066.89148 1773094.2557 1365660.1899 1422542.9325 323701.41771 154081.77662 
45691.686797 71054.339242 -67285.137899 66532.0774 -66438.307279 66456.878204 -66455.710731 66456.591031 -66456.976838 
66457.361082 -66476.351356 66475.500534 -66174.411636 66537.829083 -66398.520201 65254.00236 -72062.846007 78412.151027 
-20262833.18 4791641.6493 2584974.4805 1830254.4502 -324670.15785 3101564.8751 1677753.9237 1118074.7367 1476705.4967 
-2163.6469956 -16136.721329 3524.8167576 -284.19505199 -46.599246392 -14.917827692 0.015896169506 -1.0741238931 -0.26544784763 
0.78065929698 -0.12335277631 -50.007100557 -292.39489477 1108.9102248 -851.54049465 4605.755802 1007.7067415 -30528.711898 
265218.9857 -13847.549656 27329.734058 -58771.605775 9752.346679 -31512.778909 -44363.329787 -270207.56496 -44381.990021 
-33655.032669 -44255.723055 -34501.096444 -17755.481386 -21124.648212 -11676.199371 276.69767709 18230.064912 -14379.563065 
-5892.4045887 13281.503697 6852.4048863 -82609.770529 -23463.554322 56012.118354 -1497.8956544 31448.82587 19998.203248 
81289.738051 43106.65663 29799.239008 41516.787461 49073.273036 20204.686481 22935.740184 4082864.8666 14077576.699 
3594294.9568 -146.29432092 38091.265341 -34312.735367 40521.656564 19329.257663 19988.976954 -39228.640079 -26245.222551 
-29198.00204 692216.14507 -3907130.2556 420686.16239 -3696296.9047 -4300014.8408 -1244418.6326 -3695371.3521 -1496172.6574 
215914.59811 461903.39764 323815.8314 272750.32705 381624.52557 479749.9227 376226.74064 -1720867.5036 641821.52312 
376296.19574 65067.25447 -3105241.2487 -5632566.5514 -5620658.444 3004864.1846 -5235748.7628 -4861271.0037 -6944069.334 
-4852540.7572 -7314229.2981 24043839.248 35861722.259 705203.15609 23085798.669 1116970.7778 -7050924.5266 -6520795.9225 
-5533739.6856 -5734413.847 -1569203.8408 -4329040.9631 1392447.3282 -6559653.9904 -6983077.3156 -1598508.8232 -5651527.984 
-432192.99129 -440917.35784 1436152.687 1207888.8392 1881621.6494 49546.840869 1413246.1728 -160591.78784 -452204.86826 
1941.1544306 -334541.23798 -132442.48691 3358777.5872 794986.5433 1654318.1488 3024754.9612 489533.85759 4006407.1624 
2838335.2741 1539100.6731 2621963.0792 3951148.5309 2665563.0804 -525303.20165 -562477.00142 -1348801.0958 480735.03614 
82878.669494 -493512.51693 969744.68474 1564547.9312 1242591.4767 560493.47923 -431654.58111 -613206.64923 485841.09664 
127395.05414 1252429.8765 967738.60887 281274.66687 306579.15222 367835.98458 -1281901.1958 298256.13832 326083.54137 
346283.04698 -1651201.4801 -7883902.2011 823008.95605 -3684525.6282 157745.54198 -327918.93827 -6941697.368 4358453.3053 
459996.26201 416364.71454 -1632218.6789 115216.93625 -839774.92556 5271220.3349 693178.29075 -212961.00043 -352373.44685 
-456149.62083 -44350.374957 -8990974.2699 -24351.396329 -15065592.223 629002.62582 133178.32696 381674.52034 221953.33695 
850346.45656 -293083.9352 -611787.15728 104704.86076 3108539.0726 2101410.5835 -227289.88492 5037342.9648 -1368387.6508 
-2029992.9235 -106309.71599 -8849.5656457 -36748.748057 320914.84961 1019920.987 7316171.4819 -7200686.396 6338701.4643 
-11848196.219 -633521.43355 -833010.47656 -1274474.4771 -1169753.8133 -340811.78679 670267.43915 -2463238.0769 -3095930.1019 
8743205.4795 4265957.134 916511.69914 284651.77592 402848.65875 -1245025.5918 556225.72258 -509416.10296 184206.14918 
439403.24277 231655.81118 -2975280.0505 405814.60175 3182.2672866 2774335.9293 -14367380.427 68789044.435 -23246757.262 
568615.91659 -29086399.493 8302121.1808 -386840.34586 -241205.27059 -3263660.6426 756793.60397 -98431.605791 87808.404773 
18288.84388 -505384.64478 -198511.52199 -178761.55362 -253822.47819 -34864.792824 504709.28242 344086.90002 -11417405.756 
-4802747.2708 -6833301.4614 -8284850.3283 -2083876.5377 -7848163.47 -2291894.3562 -2240274.5785 -667504.29382 -2437289.412 
-2131355.4168 951876.43516 5532682.3194 870658.94786 -299355.39236 10986291.754 3895886.248 3041219.0152 3793414.7815 
605219.40132 -65083.339861 -2632439.0424 -300312.81316 -169932.59608 -1194025.1317 -93165.781229 -31953.435682 90015.993829 
-31321.977351 138719.75376 -544445.63363 123672.91824 -257536.81298 -594780.60886 383382.47011 -2330.9534046 -231718.53215 
128451.42752 795377.62103 999579.35124 114142.42147 155591.43376 2745394.538 -3148271.3394 4247900.2423 -380886.16256 
1079529.2915 -1123015.5183 -151916.17685 42027.30373 1663678.6645 69445.687014 -954255.10374 -289379.99096 714647.29037 
1995106.134 -468962.56879 2019510.1255 1988300.8152 -172409.7143 2588143.4243 -311865.28157 -1551644.1037 -1186855.975 
-130208.66393 428699.89075 645453.3247 1172169.7588 1077614.3577 175895.97121 261220.01655 338191.61777 -857278.83254 
-2860883.4981 8088.0801597 226107.38404 539332.67401 -272349.28602 215172.18611 1022444.1978 299103.40407 107932.83565 
403353.16309 -927197.85558 -544996.34212 243520.00981 84112.672056 203150.0577 -765998.30788 -1599360.0927 -547137.11174 
-782250.69737 -1136988.913 3990113.6951 -159651.51948 -1055913.826 -1278583.186 -79506.988115 -1577604.3844 -698524.8038 
-522543.59428 74503.923529 231340.25651 -188576.69634 245950.6622 -580511.90649 -496236.27073 747709.12791 1503521.5716 
-296760.13415 -82111.352463 339269.55957 -1263778.0648 284982.62098 339062.38622 382717.00828 -1143637.1065 -7870902.8422 
-100938.78242 -3708790.2053 -251853.7866 165112.21026 -5764525.9337 4396490.1545 42147.194098 374450.02807 -1006983.4458 
37695.802138 -817321.69589 5594896.0567 645621.06323 -238065.80423 -390671.83029 1273.2421461 -604372.03086 -8799151.0881 
-16546.491348 -15048039.32 577097.79299 151106.08519 593875.3223 215339.48994 1160387.9849 170933.5686 -608361.85406 
345830.00789 2849332.6553 1609857.801 -254737.36132 5051794.2748 -539914.82218 -2263637.1931 -7728.4331665 -107322.37382 
390287.24492 39119.096503 861642.48698 -6892796.3866 7646235.4144 -11873446.236 6359863.8346 -568807.50116 -159838.7188 
-1208552.2708 517788.78935 -723678.03757 633864.21574 10478028.601 3441827.3913 -3387120.6133 -2506458.49 3467144.8994 
431815.5227 184013.22457 525133.37234 596021.21153 -508257.40341 459139.87186 47698.520322 -2981135.2392 239169.2625 
279094.57135 -5462.9410571 -23160808.903 68586000.714 -14203300.734 3425526.5036 -28828134.579 1373761.6426 7620800.6639 
-132775.83111 1132125.8876 -3532503.6579 744306.61884 -2119212.485 -2555117.3558 -584387.76135 -2134418.3505 602244.30104 
-560904.68995 -58841.698662 -247371.46343 194896.55705 -645455.07121 443230.0845 3676883.2255 432954.04352 -278902.99362 
9405167.8725 4484525.3688 1818259.5678 4102255.3909 126085.51849 -64914.680085 -81033.396714 -163374.00146 -428392.8908 
-256507.71951 30571.697774 -253803.57203 228411.33965 225085.28309 -48850.280934 582713.27324 -2614917.3091 -161691.75217 
-300528.99767 -1065955.0157 -6093.4527426 -98061.390698 119881.40799 -18820.822403 -11519379.321 -4241281.6309 -3914151.5094 
-11179971.95 -4610032.7837 -8247960.4119 -2856013.3489 161563.63351 114349.52271 -3149839.8818 2720291.7215 4341385.8535 
1076926.7008 -348927.02151 -143747.55337 -1111761.4725 48636.582092 356217.08961 1644883.6393 -363028.95764 -869677.91311 
326154.50702 -498601.19049 931750.68991 1761526.5492 -257171.70777 2241497.9406 2582171.4166 16596.251693 263820.08385 
-306576.11962 1100200.1177 1224986.2084 -887318.57671 802578.32797 -245302.5766 -666405.22828 -211806.78575 342561.59947 
-944057.83201 -185315.76928 491068.54845 -227712.69991 315248.13768 -468605.46139 -1671179.7204 439874.73891 241484.84398 
381807.67966 372619.22208 -94286.969384 -710783.42172 -158830.26148 -798876.22213 -204597.80248 -508941.45466 245996.7721 
146323.65212 303843.67226 155092.95259 -440346.36648 -1532198.5032 -779563.81276 -632417.53771 -1254381.0736 -131664.00509 
4004942.6959 -1018904.1077 -154155.03511 -755074.4664 -1947311.7731 -352664.81001 -756941.55133 64092.200244 -218157.53115 
641766.72117 -93962.16362 -1081865.1929 -737610.36408 679099.27464 1390667.7831 -12823157.833 -11524746.465 -6247698.8114 
-6288903.7575 2787380.79 6339569.9586 -40516357.384 -40124857.193 -3472225.4354 -40182850.281 -3515940.0909 -18020490.153 
79019898.692 89798953.736 78964416.741 -18016191.266 5050220.7666 3146125.8969 -378301.20542 877059.30184 2986739.1348 
7164333.7423 -4417866.1752 -6045472.4965 -1862801.7897 -5708064.9648 -3759428.5161 -6381911.2471 5381783.5485 3148879.3708 
5044389.8294 3007352.7886 880784.80322 -6097323.3481 -4619125.3739 -2906990.3329 -4495667.8042 752089.38315 -1358392.4725 
-15497622.069 -12137867.12 -9292720.8483 -7084941.9612 -14965653.34 -6846455.3633 2430691.0033 -10286878.118 -8675754.0383 
2607832.0995 2971154.2684 2396298.9149 180998.70802 2354141.2604 92515.421385 -11796127.194 -17687048.268 -16344678.765 
-5394331.2875 -5758123.9766 -21190400.96 6114627.5529 -35281703.566 5965177.5896 -1252853.7326 -8665564.8091 -2493618.2589 
-3205990.2218 -7438909.0563 -2384755.0154 -7667339.9029 -12666398.504 -1427022.2218 7594732.1112 -3494758.3979 -2481061.8764 
-744130.00583 -1784399.9267 -16445364.064 -12217440.871 -4077610.8497 -13136672.863 -8217811.5266 5841076.0699 11075239.582 
-1133569.1793 4343470.5948 14488798.79 19464484.208 8476521.7263 1041164.5499 661404.37498 -141343.88454 -2220639.1325 
-1411065.6789 314536.7348 361312.21171 184608.51978 143603.05906 153352.71512 -120802.3169 -447962.44171 -1786228.5619 
-2394945.2935 -424872.74362 -134194.1255 -649092.07609 -829574.70925 -2406058.1927 -2116685.7314 -591784.86474 -140553.29525 
-693245.46387 -798982.55757 -4084127.169 -4225098.8023 1423.766663 342704.3687 -436099.67943 63736.974015 363986.48791 
150049.53125 752349.64182 387292.30948 311972.12116 -10564.533032 495483.23088 19617.869527 271936.25884 -308817.20431 
-870061.39222 283886.47107 293195.1736 10079.866147 277010.01053 -25897.76648 408378.15307 443687.85864 841330.06961 
646688.82282 -2380634.8776 -88843.493579 1176653.7072 901351.07455 999284.82599 522693.99476 -568147.64723 -12214.773164 
-84451.996314 122577.70156 337945.6901 -54239.761388 -823447.90738 -129662.26331 239593.2517 749205.28241 -981475.37919 
-684925.35515 -868349.91695 -19083.846433 -45120.885281 -14946.859408 -945534.68169 -673758.01059 -14368.740489 -46843.843002 
757329.87919 997912.21229 -173950.46291 99737.876192 784467.49887 491131.98578 -75905.639572 -71835.005855 -75402.547713 
-95068.98746 998932.99298 748246.09317 804258.41209 107142.83202 -66771.682055 -74481.405402 1645641.8171 48400.722745 
2283586.6101 -48840.552308 -35737.936999 -10499.31761 -10430.827359 -19346856.844 2521291.463 -23867603.052 -8651.8348132 
-41064.084099 -20274769.267 2524122.9762 96788.271991 -25724.149172 -49175.93361 2185826.8944 778251.92114 295380.41686 
3850080.0908 -9599.9373703 93251.562052 760416.50188 2461926.0011 5667829.9011 8561157.4249 -664410.6235 3895611.8156 
18257551.34 14963225.639 16350844.012 14130356.303 -18066.338378 -689.3102012 712.69149452 -13863132.093 263.52638357 
-1092.0141869 155558.01183 -2239.9540834 -7010.752935 22939.327105 -5.7292618686 0.060392148011 -0.31137945387 3.2940005164 
-596.99780359 774.64968113 2765.0097154 -12606396.414 11593987.946 10476.544382 -7796.2576019 639652.45831 567504.78531 
-297312.38748 -176.61382994 5.8073440378 0.15770325118 -0.45338511567 223.19643654 -10072.61053 30802.201141 -4020401.8755 
-1568.7505992 31338.929514 7034602.7767 -626733.79868 -4510.4398815 -31025.985214 -16.513368057 -298.97743504 -7.1137573395 
222.08269078 -1595.4106201 -556879.83825 -0.4084697661 -0.73548381482 404772.91503 4731.8771755 -14750.365917 -1737.2228984 
7988.0267186 21153344.215 -15522632.958 4707.8694878 3238.5291372 9429618.4173 -17531473.309 -1796122.7135 8207.4238695 
-1788175.8093 -29409.448715 316459.79661 -3446076.3031 -1534559.3777 -6030.4423792 95.797652612 3.3059802324 0.43148949747 
-11.744921268 1058.5351467 2662.3454116 41405.844101 -2218.7860052 131186.8684 1084115.2021 -127727.92434 -461.24198937 
-32104.157869 -23176.184389 2421039.0849 3457196.339 1521854.556 4169.7743454 -70.590280125 -3.3659226384 -0.21825195766 
-12.757177999 1058.6908956 -862.53574942 6917.4816351 7460.8910701 -12662.955474 -3638251.7162 -4436687.2367 -7867457.3543 
-13326152.404 -579.72342166 -218193.31769 -21557.997174 -2108752.9699 -11004883.978 -17435739.812 6929492.8035 -7788266.8907 
-14380618.8 -14522360.345 -26795327.94 12120207.1 264788.73398 6231060.5279 6851016.1319 -6882961.6677 4915959.7184 
-6654576.2666 -11780309.421 -3604286.3733 -5645656.6666 25871847.897 36469.858997 -144555.06791 122604.62402 41340.651946 
-202522.81297 16868.995713 -7895.9481216 11278.384401 -21857.783537 -12286.191434 14816.520716 -34921.871908 -98456.679026 
71197.264594 17334.016457 181386.596 3084904.7967 9030514.1223 -21284526.342 -1713853.6215 89703.426315 3240085.9668 
-9438799.6796 -3330383.615 -637520.23779 -8429506.9299 -9027003.2409 8300091.7407 6223914.6704 7548535.6974 5421756.2711 
10204473.285 2094532.5714 479049.93307 -14475742.717 -8198182.8219 -6616565.7695 21614794.353 -2042958.0096 -268836.31853 
4867105.0454 -3009320.4581 110161.68227 -4115779.4394 -253426.08565 -1767857.3166 1575853.6719 -1106291.5176 -1481622.4027 
-1305007.2462 -1437422.0852 -1456508.366 -1430135.8741 -1723207.2162 -782864.16331 -234302.70891 -2170250.6471 -2350670.1068 
962725.29466 -285459.44556 396167.32907 810557.7679 -255092.57398 -199910.82032 319442.31715 -68821.061614 -18516.09812 
-51790.486506 31014.859791 -34762.882773 112709.60931 -35293.034013 35698.169102 -132103.06076 31779.201259 -31684.690418 
130982.36838 -35111.175091 35094.240539 -130686.27828 31788.856721 -31789.416388 130767.80218 -35100.767388 35099.174044 
-130758.48281 31791.137111 -31790.81944 130762.39561 -35099.299094 35099.993536 -130761.43029 31769.855728 -31793.286989 
130751.45087 -35226.789041 35149.270805 -130727.53278 30812.782023 -32232.328653 130679.73778 -34698.590979 34910.09481 
-125387.47849 33515.109499 -30639.506265 120787.80237 -31540.242798 36119.44512 -131206.32263 31238.469498 -29256.212497 
109228.10093 -30128.487558 44712.218179 -108955.88257 129536.99339 33686.46018 28601.405297 15582.221152 30949.520173 
46346.369462 -138993.89998 43071.296641 24707.551161 98749.675209 28608.704086 46859.782478 -93820.561165 28494.081494 
27670.871477 50764.375823 9443.881771 8533.2911434 756.61869289 -14641.234514 -12072.757826 -17597.26243 12131.19838 
-5820.6338676 79395.493076 -37703.816854 -64225.778427 -56805.781566 -34494.53652 112611.2639 -25878.196963 -48132.273666 
-96011.429338 -41582.807292 -25206.530523 76757.064914 -49814.517909 -33591.503366 -6656.1337873 1592.4600804 27902.601467 
-421365.42289 6630844.6725 10245487.477 9702589.5121 6928324.8377 -1856583.2217 2341840.0928 435644.80529 -6395663.0242 
1572717.2905 1138585.5322 788254.25748 1449004.388 1435378.2488 1464411.7007 810222.98978 1746749.4577 221320.11936 
2346180.097 2170590.8351 -959351.11743 -367014.15268 309552.11678 -819750.56691 206556.14417 251969.29692 -306552.73251 
18800.809477 68275.206664 54686.43276 36526.378713 -29681.782149 -114519.9922 -35220.124047 34905.762532 122619.08646 
31205.641237 -31261.461809 -121417.56833 -34842.80054 34852.354536 121089.95479 31270.043194 -31270.793268 -121151.00712 
-34844.122491 34845.134391 121142.94181 31272.310108 -31272.098579 -121146.77443 -34843.430487 34844.697215 121145.74226 
31270.778412 -31294.801279 -121158.40291 -34789.843002 34714.708122 121182.07183 30845.789387 -32255.079721 -121253.14677 
-34913.920009 35309.154884 126550.75042 32567.984355 -30964.629694 -131284.7559 -34512.937066 33441.063328 127680.67077 
27703.185528 -19510.218095 -116882.45291 -22845.510685 -7213.1726753 128842.90066 -175435.37817 27757490.758 -6392314.6564 
5293934.8665 -20877454.669 25067047.414 -13497194.455 5400779.2313 9545336.797 40955.245486 -13420.447945 -122648.60267 
33032.512157 -34351.886705 16563.904643 -61060.198469 26649.718901 1187224.3443 -821.8945678 -1203666.6815 -604484.22967 
-333394.74613 24068.180172 326269.33345 589488.73783 317379.58114 -145.75228569 -319063.53295 -9210.056763 325521.72371 
62.811811507 -322468.39794 2735.0484238 14655692.119 42161782.091 -11590401.855 12139712.69 -5997480.1195 11613695.583 
535157.88624 -2576354.4767 -24281751.556 -207074.57988 201754.17968 41128.871702 514125.30779 -230.45288976 -506727.99846 
-43435.086166 -437498.59804 440266.66365 6817.3521342 -363891.20884 359387.09693 1373.5980918 -2598522.2664 2868186.404 
1382664.6884 -2126541.0903 1941402.0328 -1640027.0896 -332440.30014 324397.28191 -214.0717315 2156.8173252 325359.93789 
-17494.085693 -323779.93159 -8427.0813126 179702.33911 -61027.910123 -153793.89656 25442.73423 113725.88437 2484.190604 
-151452.54932 -17679.07723 -171789.07068 76010.227267 -48083.189548 11264.846126 -49912.216621 172252.07359 -316963.23215 
318994.41895 94.668212589 317243.27874 2.1248338672 -319267.03338 -64.776917444 -317248.83434 319278.35004 1.5128843029 
317253.15234 -0.036683651672 -319281.55942 -0.99578081453 -317253.01977 319281.00108 -0.27056866921 317251.84771 -3.2743471101 
-319282.87932 -0.52681568817 -317257.12661 319277.28764 -17.3802139 317245.74895 145.70698319 -319294.77462 -18.4922715 
-317476.97971 319058.4705 3210.0160777 -320400.05055 316231.90292 -52.331405201 3218.4892241 317780.73812 -316302.71541 
-3441.4160595 316945.15477 -319551.26442 -2956.8054757 -120163.64419 148152.68365 -84270.999732 -266408.70705 273135.85881 
-79146.631183 6734978.0666 -3607000.944 -17955581.354 -18838932.19 -3495016.8544 -1579847.6102 -3209856.5175 -6070959.8522 
-2790869.0107 -1158884.5791 -209260.88667 232133.70633 -96568.848618 1354.4182693 562.12952061 53.704671796 -7.9899513844 
0.87479958119 -0.24160633916 0.634085573 2.6144788982 20.575567464 126.8436568 -69.066240839 -223.54512632 252.87666642 
1898.6464717 33542.038775 8535.7840883 -1997336.4036 5701080.8988 13156673.816 -9059.5130963 -49751.075508 3121294.0338 
-2125.4260879 -6535990.9363 -7548729.0953 -10410326.747 -1270399.8801 -19565890.725 -14306807.795 -606257.37622 -388514.59435 
-4987289.858 -2318159.2535 -2196733.4621 -1245186.8245 -2895850.5558 -1747830.2173 -4056965.7222 -1327791.4668 -2446012.0722 
-4690372.0661 -4008918.2655 -3407316.1054 -4015212.7961 151947.41993 -302960.71812 -2332384.1172 782718.65548 -1517372.1243 
-663539.20865 37342.323645 -283848.23708 300448.42662 -87.518603562 -1453.3557092 -54470.143322 70621.207064 -69939.212335 
1743.054656 -1964.6854451 1942.217137 358.08592856 70253.51392 -70266.121458 33.648656988 -1967.999538 1967.0444116 
-7.1723849767 70253.830671 -70254.228437 0.87175134744 -1968.9915112 1968.3740136 0.042410561951 70256.581139 -70252.481894 
-0.0061763350476 -1953.3840133 1971.5721278 10.459579298 70353.736997 -70135.958751 74.876075342 -1194.2411158 1720.7142266 
-288.5697936 70007.181365 -69758.126677 1069.9405535 -2187.1520116 1644.4531957 -76.724254307 70573.878598 -70624.623973 
-116.39686403 20789.891527 3189.1831953 4887.2731245 37965.254397 -101633.85386 72397.519803 -96096.653403 1346471.272 
-6053661.9988 -1549533.1482 -1716553.1109 -1068968.1061 -808759.62564 -2220139.7992 -2307501.7451 -2227205.0887 -3204415.1291 
-4109730.144 -1893991.5812 -578791.04249 -2761405.7792 -1927934.32 436026.06502 48772.712545 25757.031518 -68032.658962 
-64850.955272 69963.697776 2214.5133154 -1852.9446734 -70190.877328 70269.403283 1976.7806464 -1972.4717389 -70251.44337 
70252.863915 1969.3232611 -1968.8360105 -70253.268381 70253.911514 1969.2079727 -1965.0695506 -70243.490972 70272.304507 
2005.4553264 -1966.5324847 -70032.651736 70548.132901 2232.9924771 -1676.8453344 -70429.352795 69813.732158 1238.139334 
-4122.6218915 -55987.415334 101478.20131 24429.622626 -18134144.815 34800.329926 1456109.9474 52279.50421 -1044.0848523 
1164.9934375 40.755485937 -50.974812331 -48284.182502 2.3426848371 0.030365495424 -2.5151397996 51.476278289 -637.43010691 
-1798.5354052 -6867.0521088 -1619.8624801 -1053240.9458 -4552.3234589 9627578.7552 -1347.6275002 3745.83255 572344.18232 
146236.73941 6522.6087813 675.2150861 -6.2737710773 0.59312679913 -0.43248334187 -10.566780542 -490924.60111 -689224.06221 
-10374.075932 10.870085241 -20465.945743 391341.54776 -495.26657822 29.63520354 0.91095407535 -0.36239255799 -11.596798118 
667082.05658 -513865.97409 -152478.4422 -1359.6908777 3470.2774836 -5928.9372434 -12504.218633 -4809756.6743 -8789133.8667 
8033729.8477 -4928.373993 7521016.92 4754.6426346 -2684917.932 38959.06376 20266.627683 -3815.7212151 -20161.991295 
605780.39698 25212.75901 -3196296.7662 -2592102.0187 -633187.82202 -20920.303432 -16.285952935 -1.0787532588 0.24020236292 
94.022854554 938.01792367 6225.5137388 49488.582744 2088728.2471 3194312.1963 -2108120.214 2590683.3066 635831.29058 
21355.322724 -278.04962157 15.409075873 1.0857596242 0.89319766263 101.60016799 1059.5431134 -2723.7191259 48.234836142 
-22844.150927 -23824.610225 41791.536637 -33272.833635 -23228.989582 -11395.403385 -4614503.2828 -504678.58675 13112401.186 
-8360751.5862 11759094.86 -1390587.9254 -3017728.682 31580.832107 14522.217547 -8615.4661244 -25081.248833 -2471898.9899 
-1074893.3337 10496146.365 -11125854.357 2293010.1551 -4524426.0066 -3228163.9429 6479524.4513 -16303959.903 -7709970.5869 
-3545492.6712 4740322.2169 1141023.2985 -5416903.2961 -1340716.423 4937431.5674 28217.866851 143851.85413 -73909.64712 
-58285.044158 38184.058566 -2805296.1494 9200536.1809 -6692889.5536 3333105.3447 1289134.6178 1306247.6214 13130054.085 
-316440.31543 26303.898908 347127.34398 18477.271334 11758.077891 -3472.2707945 -16068.025321 -22955.432275 9430.6304706 
454145.86551 11234096.523 7344956.21 1707014.652 -2301691.1489 4943830.4127 -7475806.2891 -3134956.453 -120324.55179 
-6874182.238 -11368658.033 10654890.158 10118958.536 4038600.6922 6325392.6308 6234249.0554 3224758.4782 -1279663.9623 
-14662913.629 4378534.7794 3267059.9676 5160459.4428 3365949.0455 2789214.2121 -10906705.489 1315090.3779 -208767.29511 
4186998.9773 890289.73388 540752.81842 1893743.9089 1984264.8363 1078693.5613 736260.72395 2131253.826 2513163.9527 
108317.89054 1173598.375 882818.74843 -643658.28919 1004078.0517 1555569.1902 -1154544.1047 -352286.24236 -71209.747343 
-296458.12186 -26756.877545 112114.27075 16796.53415 39163.19024 -30535.184754 117383.18963 -31463.66833 31099.450308 
-122792.28324 34742.233026 -34916.129226 121327.28884 -31276.01411 31281.15888 -121082.77003 34841.739484 -34843.260059 
121153.94424 -31272.32049 31272.606789 -121143.66711 34843.454007 -34844.395537 121146.8904 -31273.409864 31271.17968 
-121146.95167 34834.923113 -34851.65742 121153.82735 -31197.87231 31269.119378 -121185.96948 34968.509937 -34843.049986 
120687.10067 -32178.75681 30763.281648 -125258.84028 35342.512586 -35328.667144 131287.34873 -28604.631877 33998.132384 
-128129.51539 23504.531313 -39951.38926 109025.6654 -51199.690331 -25379.001672 -145701.71752 -63870.979584 -46026.916545 
-104872.42523 30438.316262 -8112506.5735 -2522067.8936 1298962.8341 -7610216.5973 16691985.528 -4626765.0286 -1859922.8439 
8684998.9596 -334768.84027 -1439306.6239 -1745868.4428 -518775.05477 -880516.36195 -2126654.7398 -1027988.2487 -1947813.8603 
-671132.50685 -2521618.9041 -2145118.4295 -86811.235177 -918271.57189 -1205937.6641 632657.33945 -1556010.6303 -997041.92927 
1149260.5729 69835.371013 349183.42978 280595.54173 -111255.26161 27918.500548 -16525.69675 30389.512891 -39232.718718 
-118844.61161 -31811.044237 31986.792813 133394.86294 35193.477753 -34981.632562 -130890.1349 -31797.455345 31798.451323 
130684.80211 35100.808074 -35096.022631 -130768.18815 -31791.981298 31791.994929 130758.91625 35099.631253 -35099.779474 
-130762.43098 -31792.190384 31789.895601 130760.31207 35093.566124 -35108.064317 -130755.52796 -31791.852199 31861.863025 
130723.57761 35115.515294 -34971.114768 -131240.77632 -32301.914677 30751.175189 126671.74836 35560.241253 -35197.9283 
-120467.75488 -32733.081258 27952.578437 127312.87835 41047.520339 -19997.067726 -99852.258254 8488.1334624 181948.53301 
93313.388184 -216939.8562 -102685.41459 163471.87134 3111.1709646 8351.4033497 -19533.431386 -12717.4364 -4967.5495335 
7500.8871112 -13600.400234 -22729.897073 16975.145623 178737.4546 87304.515447 -199966.14117 25946.356408 -8633.8102061 
-117007.79825 45606.865337 44202.733598 123026.13949 31315.306031 20905.723438 -91354.952055 32443.222714 24072.846662 
9055.046269 2603.8740181 -13111.522682 -58261.773348 -159735.60094 2077.3842498 -32120.950387 136528.90837 -39948.595263 
-39096.122005 -118883.26972 -31318.974557 -41732.687444 107214.41305 -30921.535507 -48059.349544 -40448.763254 38220.473324 
3006.9445925 -9381663.6785 3964622.3721 16929990.233 -18625437.116 -16957933.653 33807264.584 13473584.121 -35605020.227 
-43006.82191 -24100.689858 128598.91294 37371.956526 -19924.106127 -6106.6065104 62841.020023 13903.569049 -4827908.7651 
-107547.24665 5645979.0393 -4725265.5124 6465014.4289 -5012167.3512 23133308.478 -22521194.114 -1730215.1562 8007.0712148 
1801828.0607 -472248.64997 -290526.6028 314691.36296 550981.14129 -23393.038996 45872.385818 -255291.09271 188.77812203 
776578.87276 -787588.25668 266308.06123 -413848.00964 -743.40488806 410205.5089 49901.10401 -394713.21547 399537.29605 
-59985.367961 -331670.9468 97.860906197 335643.65021 -23039.556483 362761.84307 -366501.8504 23081.466277 317287.89964 
-314475.39853 -268.94525193 -318964.91233 1.1989389638 317052.06369 386.00166664 -12390.310238 -20399.342303 -84694.579872 
-24279.112851 -1131.0284507 26934.989527 -151297.97069 319288.20024 -317243.85293 4.9294835641 -319279.83064 0.58905303313 
317253.9882 0.47271466413 319281.97797 -317252.58185 -0.48097780471 -319281.74894 -0.56553687278 317252.59818 0.50456619552 
319280.2541 -317254.32879 -3.1521120903 -319290.14159 -4.4241273939 317244.83696 -2.9500068505 -319678.06038 21.122246492 
316850.16464 -77.015423082 319221.08092 -317315.06244 -74.343121269 316250.56209 -320349.97815 3199.9439103 639.0365834 
319438.13975 -317161.00736 3390.7345569 -316585.09885 318508.65082 -16857.205985 -340847.66144 -3497.3642476 329987.44035 
19991.143602 298905.09737 -330224.53374 -78024.844372 14299.013256 -260268.35934 23960.682085 249480.39653 -215939.09477 
109280.91891 60390.096472 -12794.666279 15833.048897 97388.862843 -117497.89641 -9548289.1922 4170383.6698 21843359.741 
-9376926.1631 3240131.3863 -5737849.5894 216904.73418 -209057.13949 -109740.08706 -111355.11614 193883.01041 -55741.434093 
8861623.4656 12266919.508 5928100.2266 -2355437.3211 -4320734.831 -3638065.0515 1380173.6938 -4128141.4995 1921688.8226 
17392756.541 23797044.672 18024016.862 10584401.484 5288245.5738 6710509.964 -2064120.0475 6806243.5615 5218068.5772 
17418526.613 1689097.398 19745833.083 -3956496.8346 7848509.0507 22697516.611 8494227.1232 -766.55154483 2175526.2226 
3387153.7361 4803609.8543 2192432.8091 2799938.0386 1982263.1559 1185919.3877 -223997.61511 96131.211362 -1027.1739176 
-89.515844644 5.0208457417 -2.06526508 0.37162620626 0.28158589352 2.5425640541 18.886321457 122.09619099 -88.697899019 
-116.42878958 -597.60852832 -2378.545016 -19499.647063 6404.2725201 184729.5236 -10223538.088 90153.381995 -8516422.8826 
181970.96895 1498622.5972 4901211.7837 1203789.3807 5154870.6545 2788047.0185 659428.30958 10939971.833 75946.96641 
1357238.7345 831004.99385 1987099.0418 2256135.1858 1694768.9281 1739875.115 2962369.4186 4026992.6788 2422450.6817 
1311493.0535 4708938.4145 3437982.3351 4032733.1645 4029596.521 292600.64962 -180722.12464 2331513.5065 1534087.3996 
-783430.99326 666126.28014 284791.95675 -38128.085849 -297755.75974 548.67884518 165.75976395 51736.083542 69460.282955 
-70515.208451 -1040.793307 -1436.7937497 1437.0223711 -476.08156437 69951.342185 -69944.599624 -54.95056374 -1440.8511129 
1443.7811957 9.0605762648 69944.121222 -69943.700176 -2.1567580332 -1443.780811 1443.4938988 0.82087047368 69944.742899 
-69940.725557 -0.21312308793 -1441.1180347 1459.3448979 9.3533638737 70057.063204 -69844.547428 74.224794626 -1697.9612122 
2231.9090801 -311.22837148 70466.509429 -70052.640728 1154.8484759 -1788.3779268 797.65694087 -229.40163301 68271.380209 
-70568.637892 -4350.362952 -3960.7616505 -2642.1238241 -4698.1680745 59599.63571 -98521.124204 -7988.5493579 29392.247549 
108573.61144 3858995.2299 1953210.3224 7860093.257 1223074.2012 1913469.9058 2106305.274 717759.95873 2217423.5837 
2306597.815 4078779.2945 3247357.5657 606031.04591 1922693.0132 1923072.4635 2721747.7413 -46789.664497 -428033.24219 
66576.755538 -26016.651161 -69892.660335 64086.366606 1260.6584282 -1658.4347935 -69976.778042 69851.219741 1445.7832015 
-1459.5906516 -69943.465253 69941.12359 1443.7808853 -1444.66606 -69943.42009 69943.618582 1447.0718262 -1443.4254106 
-69926.442022 69953.304735 1438.8389548 -1407.6636014 -69662.186641 70159.965339 1842.973917 -1171.0770964 -71037.506469 
69879.170331 4755.8149384 -2869.9630506 -82902.164803 57308.661898 -26687.872675 -11706.899146 -36090.460408 -29746.056727 
-14570.827065 -69037.128496 -261598.23179 -13897.694398 -274457.71716 -29464.5888 -47206.314812 -70492.285014 -13224.501294 
-54965.878777 5732.8824946 -92866.822369 -219600.07495 -38536.492941 -52593.232145 120228.39253 -15349.118028 -69999.891092 
-166630.60116 -50503.893101 -10907.045649 24088.569942 -80980.142353 -2840.0830663 -44614.941559 -61898.841696 56741.901755 
-57217.97379 -62622.798927 -57881.278061 9108.5232789 -52148.680639 -15488.981511 11529.468062 -27232.26165 25592.143212 
1677.0215347 -35401.537263 32039.840016 46398.262806 6890.9954117 -8198.1588168 -44513.773685 -6973.8962302 9116.1251048 
52431.93906 -10490.130658 -7452.6392294 -40922.18265 1245.9063442 24645.085129 -4096.5316738 20689.370852 -4973.651433 
-7507.6565434 18913.897771 -2159.3387763 64012.09107 15753.569595 35059.029296 44149.253451 6435.5474014 13878.092942 
44338.698165 -21690.898274 8999.4304496 19914.421559 46140.097471 145395.65725 -9863.4205729 100082.12999 2825.2774064 
237933.90287 40944.976608 44823.790122 -124078.39229 56936.897551 16109.495936 171921.05056 15778.599036 73631.346843 
52869.277344 62388.595761 -4279.9302769 60581.968525 -64850.407811 69506.340257 50685.570604 65642.315978 3802.971923 
54185.223241 76306.007074 -1241827.0356 -241218.97816 -3535547.9958 298839.17925 3290748.2169 3011926.0801 6109083.9781 
2786.6645151 -1692220.0531 -5275054.9056 -6185493.0661 -1071991.0275 -1242034.9015 -1439375.88 -2299105.4511 -1194172.753 
30132.986757 -1022692.9808 -41359.539687 -372763.09477 -672176.07177 82734.583757 146381.17046 -1429203.5768 547151.60448 
-801750.81995 -3617597.7859 -1722794.7688 -2077193.7292 -416445.08897 -389587.55859 -2189672.7759 2131660.4112 2249641.5917 
-963315.69667 62272.405091 -478281.71109 -81016.400266 -583821.03352 327719.15518 341775.04904 -251226.64058 460982.47184 
-615927.12206 1754296.5765 1753807.174 -143755.69552 77060.186333 67164.510975 2649949.817 -339386.51465 -117839.08077 
1395923.097 1524365.7435 4438108.9924 -4737130.2525 -22342067.804 -9774239.7771 -17922044.93 -22384581.054 -4821498.6391 
-9726986.2712 75169.582963 -350046.69012 -4207447.32 209044.13796 -386439.1896 -184778.51342 -2007646.1529 -2225449.474 
-1962604.1901 -2474064.5865 -2292509.9132 -1512351.0483 -953503.28176 76538.372982 4603786.0678 -5585621.7527 -2223419.4699 
4946244.0043 473302.23007 -1169012.8773 -1213776.8542 -221260.67943 6812925.031 13592110.923 -3641422.9293 -4944874.5432 
-10487.797881 -4164278.0142 -1164592.5497 -1342711.9555 342354.81816 -1156626.0311 282114.51923 -1171188.4309 291702.14056 
348406.29698 -102017.90969 -184022.66825 823299.31455 7272.7659531 1860752.3289 -706735.33958 161968.48081 -110408.97829 
-218267.90037 -89684.772768 -2331001.3851 -1993293.9077 -1406085.6239 423784.31892 440903.84414 2066749.5843 706987.22499 
1835547.3452 1946335.4903 1918183.7259 56803563.611 5308619.8957 17887244.535 384422.26443 5713093.3901 56720082.589 
342535.31067 -173407.09343 30344.399218 237968.81123 280681.02406 45614.102618 -12559.605038 3262297.6743 -1796604.1885 
929881.97054 332632.86815 -1803228.5424 3265062.4892 929778.57291 -1301778.1711 -2655604.7639 3504395.7848 4394834.7766 
-4663536.8696 4955873.3369 6268168.3466 586457.87345 591657.58525 180014.42759 -418716.08034 947858.22101 -545493.91966 
712547.97253 417757.93287 961201.4974 1532689.938 2551922.4083 1500397.4303 649569.84945 2001396.5139 724329.40162 
2204159.4621 800394.15829 -45752.047404 -931417.89995 -76491.806484 728300.68773 2698758.9331 -2647083.1731 1082995.9516 
13043058.162 77135.240192 4103575.7623 10763273.199 -2798611.0285 164199.77037 -5878523.6941 885416.8689 258314.69058 
-202381.41625 -513033.81599 -1341522.6849 11064.629883 -2310039.5801 -4563585.5476 -2545964.1962 203619.09365 -1182269.0617 
-65546.845019 168355.90574 723482.89664 -10280.629732 441586.98648 885624.16757 795042.56866 -762416.07901 756984.83344 
169736.01645 754414.76218 612645.61486 -1561973.5594 2025637.7971 -1050568.9973 -1052561.0136 -2637796.9867 -8231588.3713 
-2149130.247 -5941128.9851 -1221404.4795 -676538.5833 -2455548.4923 -1430588.1575 682875.3552 -2426435.6283 -612463.05255 
546194.25273 421348.25073 273698.77648 392093.29232 143126.5479 1306736.2249 1334184.3226 87279.888837 275254.73286 
1680089.1593 -4992680.8893 -6007440.8702 441504.30804 466033.71921 149376.32061 281538.8332 2634991.4797 733094.41188 
-348343.00473 -183161.2227 860846.40455 313786.79211 2054729.0292 640284.34475 1712783.968 3560217.7124 -102514.09047 
-2224191.1349 -2120425.3129 -2220108.2799 251173.21756 24506.615654 -522034.41907 -130001.38293 -280593.48657 819662.03439 
175695.28265 -542406.66326 285353.99653 -26308.995186 -18589.50647 23672.879163 -14664.788907 -2043411.421 1737728.0597 
1490406.4001 3763922.6116 -1696125.3063 -8337918.3551 -108495.93185 -172773.96669 -93196.205904 -12404523.186 -10428258.008 
4621997.5655 6332397.1281 -2903672.0679 1589043.0281 2918152.8589 3510706.1307 -5594347.6649 -6399916.4606 2384556.206 
117350.6195 -850436.65504 3237258.5174 -4906749.0691 -4584446.3958 -12328684.971 -138580.51383 457524.08008 -63120.607514 
-30671.59243 -78218.766506 35402.902874 33190.3287 -2689768.2634 1208543.3113 66216.038129 37918.086502 1208840.2907 
202672.36326 230362.19073 -2673826.8265 -66104.279181 5289129.8018 8859039.6541 12072972.753 290039.01955 -2390240.7121 
-2583901.8987 635339.12905 48408.294162 458406.00143 -4051782.3717 2554.677288 -3623.6521286 5483.5902052 305533.02463 
-2247221.1612 -3939318.6387 -1986217.2884 -2588885.4001 12221576.975 1923834.564 -23886.729854 -5868.1168159 -9002.1432581 
-1616.7100413 -5019.4274896 2047671.0033 3844121.7237 -1896.5867191 4866.9955893 334.60350031 -2452.546798 -7437.897056 
13484.223594 -4632.2892746 25958.41793 -860722.69596 -364817.51271 -395350.96349 121892.42786 310011.63296 3819622.9196 
-3005657.1956 -6320633.637 -1223009.9468 1175501.4935 110217.19929 -4558071.5879 2807.1594372 4327.283406 1990219.8251 
3069375.4921 1999326.6544 -3775410.8638 -9891.0658143 15154.034154 -32451.156686 4939.2283426 -34958.08785 -9234.1813554 
335589.33294 -2965394.1044 44749.456532 -27904.671083 -204412.77058 5246.5827548 -27961.689247 -26192.85832 -4095211.3965 
18823.968221 -4861864.7524 -94648.868182 277727.84987 313523.42325 291425.83134 328390.58082 9440.3443454 111683.19094 
-688168.93208 99777.133339 68658.950802 27333.972229 9987.3379236 53465.76184 15766.373734 -164260.85083 -610858.24608 
-4263184.5719 4269864.0007 -4238995.7505 4183221.5394 -22998.927976 830.94825543 -11605.414427 40239.96406 -15306.23934 
115357.65359 2378497.2056 42503.049849 2047620.9606 8043.7368259 10446.777809 -201516.73441 3513820.0619 7987111.5362 
-185211.41803 -954716.79957 -266655.17365 -1262531.2666 4753.7465392 -561167.97875 -47833.736967 175511.44428 -23472934.226 
-17137807.353 11821803.739 -9920007.1887 20783470.494 -8092.6558026 -11145.738244 -13475.609348 -32593.331504 -49795.768883 
78358.216983 37058.270173 -13821.229135 8332.2912692 23745.773318 -75695.344061 -100749.75303 -52582.287216 -2028.1019665 
-44891.813864 1867435.004 -7164888.0873 -7103196.0541 -22062.845113 -1980693.6696 -2721679.4085 487026.16872 64914.140015 
131030.53675 -1511.612142 5211.1803734 45990.10544 11935.405099 -499.1063072 7236.9255501 79384.940497 8966460.4124 
1703022.6527 -92850.568485 -2718679.4529 -5104114.6465 25987.290246 -89010.812468 4524.873846 -148939.59986 -27920.483624 
1248692.8768 -187099.14932 194866.38074 -10272.89039 16305.401071 179920.19059 -2341.768888 -199076.04351 3426.8669233 
-4879089.9997 4025066.4289 470390.89288 18174667.64 336.13641096 -199522.1715 44.792597193 -167.61933918 199789.969 
-6.9151606304 -199365.73841 0.46748334437 15.156808404 199367.5506 199406.58245 71.613343733 4.7409540588 -199305.89987 
4.6322423242 199376.48733 -0.52245321964 -199374.35267 0.62730525429 0.64864723192 199375.71551 -0.24736943808 -199376.01652 
-2.9164039889 -199374.15993 199374.31635 0.77548058411 199397.10841 -199404.53877 -65.489203053 -199368.20899 -3.6160189514 
199377.3496 1894038.6436 6327352.4193 -3756090.6422 978192.82051 2481.3238004 156289.20775 -173542.22706 -60148.082298 
28511.106002 964549.20725 1614511.741 975995.883 1667904.2571 -219568.3427 201377.05631 -40.232570737 -199946.48743 
-199327.77337 199873.10099 -571.97564869 514.26340125 -2274918.9573 -278442.26827 1872915.5527 1919852.8839 408194.88621 
1277334.618 922194.65334 4293419.4002 2104002.021 1444873.6486 491289.57809 997882.41238 -312466.28023 293263.04527 
102441.746 -69752.20173 -184412.86781 -4076.6824852 14925.058633 202231.61157 2990.2792504 42077.812832 3123.6459036 
-27329.447884 201032.73259 -199190.13292 -530.0631484 892.09785591 1180549.2294 1625652.9876 2608743.6543 -683.09386524 
199660.00304 -298.76816295 -201067.67002 -5023498.0087 -826519.58083 5303244.9425 2046974.0838 1521962.5315 221444.27237 
-2923565.7152 -1400724.221 -201101.2797 -613.57681501 -408.27483195 199668.12747 -593.98385234 783931.53784 -389564.24597 
162274.64278 201298.78405 10.676564819 -201304.79807 -17.260830935 -2.400938941 -1208028.9679 -403319.94555 -2607646.7237 
-1640745.9695 -1449863.3316 201310.74836 0.59275619773 -201311.22776 -1.1728007644 0.30171374147 -201312.61566 3.5855615012 
201313.49121 -1286.8627404 -155108.34556 -26667.781382 60498.365782 175768.08246 -788394.61789 -288465.06847 -157410.03251 
389434.20154 -983027.45685 -967752.26172 -1614200.5058 230950.99107 -1644063.0524 -201310.16957 -0.40252332826 0.82691665123 
201312.14463 201400.39901 -460.47712307 -201843.13943 150.52289078 -58.567892822 -203286.29828 -970.56008228 200971.25652 
-201344.79578 74.051202016 201340.75911 201316.94294 -2.5651478429 3.6934989568 -201308.46842 -1323610.7055 -944975.86676 
-4267758.0285 70.486806617 201343.97662 535.7292397 -200808.05315 310395.00798 67783.126517 -103177.14966 -201284.77537 
0.23000372761 201379.36115 -2127060.0231 -980456.02215 -500727.48072 -200907.98649 24.346743852 200837.95663 199521.61021 
-199768.52888 205.7118219 490.45645681 -197306.01082 200029.35701 4069.5177548 9289642.0939 7507706.5727 105329.70202 
-31822.660418 61407.852037 -48992.179209 -168433.97672 156165.70474 -122857.22394 -86273.458751 -1122.0909518 82875.597697 
13248.320205 116091.06115 3950.8325539 -69443.510672 7252315.5796 -17067.525099 -76098.431997 8830994.2912 1810644.4586 
5210012.1112 -12251.242349 32345.056904 -42004.123347 7045809.489 13900189.052 11661963.722 -14500803.652 -20106.097307 
22115064.925 15015758.51 -17033913.688 -8484980.2193 16130671.716 1403.4828848 28346.100877 -74298.756607 -11908.392928 
1304467.645 55150.490144 136230.62273 19357.15862 130051.57074 -95467.381653 8808.4796704 -4760.6935312 -10262.281366 
59739.630306 -1598.4373293 25638.092501 -7876.8013717 -20631776.086 -5202.2662666 5314.4953313 -20420115.936 2414389.7985 
2118348.6569 -21586564.053 -20861.883346 -14787.862147 5645.6128921 -137552.4257 -121927.76953 -660345.81927 153478.7299 
15580165.496 4610759.2499 7544.068558 -10175507.509 -11222583.782 3369566.2106 413323.15815 -12024216.359 -28824.288529 
-25341.389911 -75110.132734 -16260.032553 12841.918572 -17475939.592 20386147.37 -6026769.8889 -97687.810055 51608.778041 
15052.945404 -13324224.658 5356355.0445 -14052161.687 5538416.2458 -1967.7534058 4736.926955 -1932089.7125 716555.64101 
-1931861.2424 27822.515437 -33223.174155 10277.893109 55814.184245 509307.39743 -882134.25279 -47213.211557 1065209.6084 
792566.9631 603.27372453 -1485.621129 -3148138.5921 -1945564.1595 1184.7585144 -467.73264522 90351.010086 285174.61358 
0.10671851178 -0.37808047532 -461.07618143 1281.2187031 -4175.6547427 -3785.0465598 80.912493281 -63.377160996 0.87630296038 
0.55079998017 3.4736808481 -4.8402010543 2.2150158339 -5.6792377043 0.022068385006 0.040619507931 -330016.95674 151022.70496 
-1.2296436245 0.90462442491 -38363.451538 15825.434926 24.586599918 61.029678228 -630856.66285 663865.0454 159.30822557 
48.466297642 0.55240891935 1.0901095874 50.119559773 164.50894489 -28.574906951 -44.743233907 1.157160685 -0.31621683455 
0.24915523684 -0.1071693773 1.9902868405 -4.4957241171 -425.88302461 -25.442373415 2.6955744282 -6.0084542398 0.17748148914 
-0.13039190806 10925.226447 -94106.630685 -288959.47118 4791.4671541 2003.6009191 2482299.0761 2153489.972 -15187.417558 
39612.293934 644709.38495 -646411.10718 361191.72401 -120557.28458 -454.02827906 1262.4988593 -2462.742924 1802.2179133 
83072.149301 -1038069.6481 -484.34340813 1029.9489193 -10285.380515 -55727.300405 -528910.94914 878827.24229 512.97779277 
142.10768586 -4484583.5305 -8888031.4038 -126833.70619 -252625.68039 -536205.16847 -297651.56064 -109848.40244 -695239.35579 
404088.18602 127887.40928 -76242.722765 122135.63834 98046.143803 -66647.953768 9734.1648173 -41130.943196 -6704522.4659 
13662806.418 20851425.273 -837690.74531 -2347849.3358 -1194466.9218 -2093004.8955 -1336416.5948 -3695608.0307 3443733.7269 
3090846.7546 11424873.267 -46398.743459 212950.28451 16966750.744 -15412408.274 11878085.687 -25377.72492 -28661601.332 
260134.83851 17553487.669 -28025944.578 -9340446.6798 4137163.4516 -5081275.8476 1025786.3817 -9592.0960088 -2163.6583786 
99930.229053 -29693.78791 115711.04793 31588.383831 -385558.19449 1791.796955 12378.005262 8742564.0608 -20201943.812 
4084.5932921 12575.826742 -14397.694637 36791.201758 -76176.132005 1704859.451 1826711.8362 -2797817.9916 64006.103339 
28934.795607 28460.15631 -30651.403668 24941925.331 -13379.012122 15501319.374 -685138.36225 -540554.66345 -62.861480207 
3.9766317838 50.341839734 208.09527308 -3.597257393 5.5174071075 0.19547054927 0.10427468829 -0.00042505160502 1.7052961504 
-0.052818760352 0.27850946274 -4.5126037067 -4.7631520502 -0.3791541268 -0.057628913822 0.66385706812 -0.15082637046 -0.52294027344 
2.9966217933 -1.5685368635 47.247456651 59.46437981 -251.06336196 43.184850672 25828.386294 -722.30191409 11905.020205 
59783.335386 1877.7158657 514.47608102 -1844.2903813 -2125.1647973 -137149.05464 -1285518.1725 -257568.87018 119.22258863 
-564.45971361 -337.59064226 106.17363488 -65.803469579 -162.3643535 1538.3691636 5342.4403933 -100767.91838 -223.0482552 
7668.1338512 2897.5847745 2072.7266975 98055.631398 2509.5512676 -26036.809167 -7852.0199058 -1578.5675587 -4183.3045838 
527593.5244 15821.376876 1206700.304 1855630.0898 -500489.41629 -1893409.9398 -1098695.3054 -3276.7313786 38189.319543 
31662.825113 266339.15701 1827428.0681 -1861885.6952 -12875.453918 -37267.576303 597245.00681 -7208.883116 134029.92291 
-3322.47525 508.70547615 -27.272182785 -590166.57682 576.31113335 113.43049906 4.3920489146 205.80603016 50.734037563 
-5.0213795491 3.057416866 -55.070286535 3.5270514715 0.40674211554 0.44246987877 -0.026445901996 -0.063813704709 0.52100872762 
0.22202933055 -456.66498542 159.51334718 -1.544062583 4.7496749624 -59202.002308 1293038.228 2626.5342026 -347.81120936 
-328.64856087 -42.940171008 41578.324621 2114.6081147 761.54887737 -3692.3078653 3284.1543461 -4112.0300457 964229.00261 
5153855.2354 -17273438.859 -17588345.303 -5039.995636 -85503.805583 -701771.07026 -25098911.045 -2105826.1133 -723320.14136 
-28153339.045 7146.77656 -1916059.0949 687366.19533 -146771.73893 6109.7748919 68249.983315 -24895.029125 -224323.51162 
-2117057.7517 -13237.015337 -4906.8265629 4573159.7311 11112.562803 -4881.6299671 294.54669638 1736687.3874 -1111275.4246 
-295428.5122 -4059249.9264 2468.5140356 -23327.725404 82487.132416 -8996.4441464 -11167414.233 4193306.0858 90796.465271 
-24795.812878 6368.3886199 20133775.231 -2794971.0281 14130700.295 7199917.1698 11752285.605 546401.13986 -15893286.997 
-10520491.845 -2283923.876 -7093861.4059 -9858575.1063 -16474.852009 1127894.5624 3483674.2041 574377.90185 2619835.9885 
12000405.193 6552884.5614 -2642999.7769 -2564173.3612 -7764118.0586 -836753.48532 -605637.99843 1074404.1979 4700471.4045 
-7905368.877 -54544.221485 -13762.366145 -44644.846997 -188445.454 759835.01146 752190.63373 3234581.1902 3591273.322 
127605.29388 -6673133.4724 5581228.9485 -26560.687063 -101035.5568 -2226758.6845 -24136.522472 -1941460.3986 -1469006.7602 
-8359248.3447 -4928127.0914 -43527.257302 -34338.702294 38886.869461 
Equivalent%20Plastic%20Strain 1 3803 double
0 0 0 0 0 0 0 0 0 
0 0 0 0 0 0.085097103465 0 0 0 
0 0.084932286039 0 0.44519832764 0.46850214645 0 0 0 1.2174256985 
0 0 0 0 0 1.2514664893 0 0 0 
0 0 0 0 0 0 0 0 0 
0 0 0 0 0 0 0 0 0 
0 0 0 0 0 0 0 0 0 
0 0 0 0 0 0 0 0 0 
0 0 0 0 0 0 0 0 0 
0 0 0 0 0 0 0 0 0 
0 0 0 0 0 0 0 0 0 
0 0 0 0 0 0 0 0 0 
0 0 0 0 0 0 0 0 0 
0 0 0 0 0 0 0 0 0 
0 0 0 0 0 -0.0049680203208 0 0 0 
0 0 0.065032230283 0 0 0 0 0 0 
0 0 0 0 0 0 0 0 0 
0 0 0 0 0 0 0 0 0 
0 0 0 0 0 0 0 0 0 
0 0 0 0 0 0 0 0 0 
0 -0.0049569392428 0 0 0 0 0 0.064887177089 0.02937450578 
0.069413764893 0.069287070858 0 0 0 0 0 0 0 
0 0.47172803654 0.44374391256 0.46544987834 0.19186685018 0.0073368489019 -5.8817639041e-05 0 0.34406931625 
0.09687237049 0.00061594631259 0 0 0.15497043188 0.012962589683 -0.00026310404964 0 0.35428141286 
0.072035894815 0.0027552613781 0 0 0 0 0 0 0 
0 0 0 0 0 0 0 0 0 
0 0 0 0 0 0 0 0 0 
0 0 0 0 0 0 0 0 0 
0 0 0.0037949958084 0.52256924734 0 0 0.26555172009 0.85720736899 0.93240416486 
0.38814464531 0.17411407992 0.093207568074 0.072654949685 0.046744144921 0.031598490568 0.012726635658 0.0047434985283 -0.00050090960637 
0 0 0 0 0 0 0 0 0 
0 0 0 0 0 0 0 0 1.0069950399 
0.69597699276 0.27568241238 0.12574534502 0.08456504842 0.059967818514 0.038998834866 0.028584526525 0.0061229349781 0.0031973535553 
0 0 0 0 0 0 0 0 0 
0 0 0 0 0 0 0 0 0 
0 0 0 0 0 0 0 0 0 
0 0 0 0 0 0 0 0 0 
0 0 0 0 0 0 0 0 0 
0 0 0 0 0 0 0.35224780444 0.13813318873 0.062077963234 
0.032883852087 0.026365643296 0.016803161635 0.011595917693 0.0045424292804 0.0017410234184 -0.0001822958884 0 0 
0 0 0 0 0 0 0 0 0 
0 0 0 0 0 0 0.43872399775 0.21940970953 0.097232981383 
0.046295788521 0.030196778028 0.021941484765 0.014079862149 0.010368674232 0.0022982432895 0.0011506724105 0 0 
0 0 0 0 0 0 0 0 0 
0 0 0 0 0 0 0 0 0 
0 0.34309042078 0.14557496051 0.05527066915 0.036414167393 0.024261041561 0.018950583898 0.010034372184 0.005094531001 
0.0016722514457 0 0 0 0 0 0 0 0 
0 0 0 0 0 0 0 0 0 
0 0.42861253093 0.23851992427 0.095139820658 0.045647705976 0.030014837034 0.021605673896 0.015775756856 0.0073095518508 
0.005582853372 0 0 0 0 0 0 0 0 
0 0 0 0 0 0 0 0 0 
0 0 0 0.019003990483 0.45531143154 0 0 0.22957694869 0.92219892915 
0.87582175865 0.43958446248 0.14668547642 0.10108625919 0.067482530438 0.052004425946 0.028078202386 0.014157937111 0.0045780770886 
0 0 0 0 0 0 0 0 0 
0 0 0 0 0 0 0 0 0 
0.93049651499 0.66797229983 0.27720080012 0.12796341358 0.082316023998 0.06016057415 0.043291008151 0.020465376631 0.015317873344 
0 0 0 0 0 0 0 0 0 
0 0 0 0 0 0 0 0 0 
0 0 0 0 0 0 0 0 0 
0 0 0 0 0 0 0 0 0 
0 0 0 0 0 0 0 0 0 
0 0 0 0 0 0 0 1.4247150188 1.3944612594 
1.3321497546 0 0 0 0 0 0 0 0 
0 0 0 0 0 0 0 0 0 
0 0 0 0 0 0 0 0 0 
0 0 0 0 0 0 0 0 0 
0 0 0 0 0 0 0 0 0 
0 0 0 0 0 0 0 0 0 
0 0 0 0 0 0 0 0 0 
0 0 0 0 0 0 0 0 0 
0 0 0 0 0 0 0 0 0 
0 0 0 0 0 0 0 0 0 
0 0 0 0 0 0 0 0 0 
0 0 0 0 0 0 0 0 0 
0 0 0 0 0 0 0 0 0 
0 0 0 0 -0.01672725899 0 0 0 0 
0 0 0 0 0 0 0 0 0 
0 0 0 0 0 0 0 0 0 
0 0 0 0 0 0 0 0 0 
0 0 0 0 0 0 0 0 0 
0 0 0 0 0 0 0 0.061739592476 -0.012420050802 
0 0 0 0 0 0 0 0 0 
0 0 0 0 0 0 0 0 0 
0 0 0 0 0 0 0 0 0 
0 0 0 0 0 0 0 0 0 
0 0 0 0 0 0 0 0 0 
0 0 0 0 0 0 0 0 0 
0 0 0 0 0 0 0 0 0 
0 0 0 0 0 0 0 0 0 
0 0 0 0 0 0 0 0 0 
0 0 0 0 0 0 0 0 0 
0 0 0 0 0 0 0 0 0 
0 0 0 0 0 0 0 0 0 
0 0 0 0 0 0 0 0 0 
0 0 0 0 0 0 0 0 0 
0 0 0 0 0 0 0 0 0 
0 0 0 0 0 0 0 0 0 
0 0 0 0 0 0 0 0 0 
0 -0.016705031412 0 0 0 0 0 0 0 
0 0 0 0 0 0 0 0 0 
0 0 0 0 0 0 0 0 0 
0 0 0 0 0 0 0 0 0 
0 0 0 0 0 0 0 0 0 
0 0 -0.012392348107 0.061611687676 0 0 0 0 0 
0 0 0 0 0 0 0 0 0 
0 0 0 0 0 0 0 0 0 
0 0 0 0 0 0 0 0 0 
0 0 0 0 0 0 0 0 0 
0 0 0 0 0 0 0 0 0 
0 0 0 0 0 0 0 0 0 
0 0 0 0 0 0 0 0 0 
0 0 0 0 0 0 0 0 0 
0 0 0 0 0 0 0 0 0 
0 0 0 0 0 0 0 0 0 
0 0 0 0 0 0 0 0 0 
0 0 0 0 0 0 0 0 0 
0 0 0 0 0 0 0 0 0 
0 0 0 0 0 0 -0.014562685189 0 0 
0 0 0 0 0 0 0 0 -0.0082800338679 
0.10471801677 0.046811038652 0.10456215871 -0.0082615654046 0 0 0 0 0 
0 0 0 0 0 0 0 0 0 
0 0 0 0 0 0 0 0 0 
0 0 0 0 0 0 0 0.27552733847 0.04842097441 
-0.0010838746112 0 0 0 0 0 0.39755790782 0.37208896049 0.21433438143 
0.39168255725 0.23343387254 0.12658739413 0.029245424303 0.15216818342 0.00044747957798 -7.8423518721e-05 0.01243501205 0 
0 0 0 0.029625212414 0.10540023404 -0.00035080539952 0.0028360412692 0 0 
0 0 0 0 0 0 0 0 0 
0 0 0 0 0 0 0 0 0 
0 0 0 0 0 0 0 0 0 
0 0 0 0 0 0 0 0 0 
0 0 0 0 0 0 0 0 0 
0 0 0 0 0 0 0 0 0 
0 0 0 0 0 0 0 0 0 
0 0 0 0 0 0 0 0 0 
0 0 0 0 0 0 0 0 0 
0 0 0 0 0 0 0 0 0 
0 0 0 0 0 0 0 0 0 
0 0 0 0 0 0 0 0 0 
0 0 0 0 0 0 0 0 0 
0 0 0 0 0 0 0 0 0 
0 0 0 0 0 0 0 0 0 
0 0 0 -0.029823551711 0 0 0 -0.070423970807 0 
0 0 0 0 0 0 0 0 0 
0 0 0 0.046640994079 -0.020987220569 0 0 -0.0038857582146 -0.00028214078577 
-0.0035984669856 0 0 0 0 0 0 0 -0.014169918769 
0 0 -0.0089565883577 -0.0014317256948 0 0 0 0 0 
0 0 -0.00010643481185 0 0 -0.0099138958419 0 0 0 
0 0.6009892283 -0.042541659014 0 0 0.29101927997 0.11167161123 0 0 
0.0012526265496 0 0.25642052335 -0.012933161552 -0.0056500562567 0 0 0 0 
0 0 0 0 0 -0.00016370448117 -0.00078470553339 -0.0004526528769 0 
0 0 0.11704830369 -0.0046819157786 -0.0020572692891 0 0 0 0 
0 0 0 0 0 0 -2.1388232378e-05 -0.0025032952701 -0.063274686721 
-0.024082396587 0 0.31968306164 0 0 0 0 0 0 
0 0 -0.005365312056 0.17386799268 0.27582435261 0.39519180067 0.34306314723 0.2210576562 0 
0.75421119352 0.40206239795 0.74714484079 0.83125533569 0.55927903445 0 0 0 0 
0 0 0 0 0 0 0 0 0 
0 0 0 -0.0027345428948 0.073343120922 0.026746794439 -0.00011763527808 0.00030797315629 0.0001730798187 
0 0 0 0 0 0 0 0 0 
-0.02301577043 0 0 -0.022259309736 0.1781652979 0.20373346043 0.15375695714 0.32452144988 0.63714034669 
0.42973882246 0.084141805753 0.16236860349 0.095821017191 0.046988120672 0.083357027242 0.00090103979256 0.017899948775 0.024708940683 
-0.0057009030955 0.012547904055 0.022343326453 -0.010107485702 0.0046829982513 0.010888169264 -0.0045267145016 0.0012647565761 0.006577109041 
-0.0031389934755 -0.00038045400113 0.0013258655969 0 -0.00066865578289 0.0015789841963 0 0 0 
0 0 0 0 0 0 0 0 0 
0 0 0 0 0 0 0 0 0 
0 0 0 0 0 0 0 0 0 
0 0 0 0 0 0 0 0 0 
0 0 0 0 0 0 0 0 0 
0 0 0 0 0 0 0 0 0 
0 0 0 0 0 0 0 0 0 
0 0 0 0 0 0 0 0 0 
0 0 0 0 0 0 0 0 0 
0 0 0 0 0 0 0 0 0 
0.21867016183 0.13024613837 0.23924371356 0.063223728741 0.027813690903 0.038793248339 0.029551909899 0.016160072362 -0.0032049814232 
0.0087078047049 0.0063792104217 -0.0020285754471 0.0081921404266 0.0045016613511 -0.0036673694208 0.0039737880055 0.0017712105838 -0.0016823439897 
0.0024541444764 0.00041472167584 -0.001192453251 0.00047611282745 -0.00012525227158 0 0.00056883556075 -0.0002432109591 0 
0 0 0 0 0 0 0 0 0 
0 0 0 0 0 0 0 0 0 
0 0 0 0 0 0 0 0 0 
0 0 0 0 0 0 0 0 0 
0 0 0 0 0 0 0 0 0 
0 0 0 0 0 0 0 -0.012877443935 0.030191021925 
0 -0.037300261489 0.131687601 0.097914761947 -0.028431041552 0.032671689202 0 0 0 
0 0 0 0 0 0 0 0 0 
0 0 0 0 0 0 0 0 0 
0 0 0 -0.028980066179 0.22463689215 0.18534909326 0.042726243337 0.10577367286 -0.015633517784 
0 -0.0099492781828 0.040881308234 0 0 0 0 0 0 
0 0 0 0 0 0 0 0 0 
0 0 0 0 0 0 0 0 0 
0 0 0 0 0 0 0 0 0 
0 0 0 0 0 0 0 0 0 
0 0 0 0 0 0 0 0 0 
0 0 0 0 0 0 0 0 0 
0 0 0 0 0 0 0 0 0 
0 0 0 0 0 0 0 0 0 
0 0 0 0 0 0 0 0 0 
0 -0.021410011946 0.25300358695 0.11446116377 0.20215114386 0.029349319808 0.042957387571 0.085518789814 0.19889861959 
0.020893288543 0.0061962775664 0.0022409485991 0.00028254011608 0 0 0 0 0 
0 0 0 0 0 0 0 0 0 
0 0 0 0.013109909687 0.42530876794 0.43357244645 0 0 0.34691874007 
0 0.16908659789 0.28071023569 0.2701504189 0.07181886815 0.10961673156 0.1304886258 0.036830641057 0.053201266293 
0.061154972325 0.028079768682 0.031955851584 0.035614577535 0.01972881124 0.023996859075 0.025751667858 0.012107098329 0.015530947868 
0.018433422574 0.0083130183862 0.011340918451 0.011664510465 0.0015749772179 0.0029906408202 0.0057626968786 1.553736447e-05 0.0019453312738 
0.001635875066 0 0 0 0 0 0 0 0 
0 0 0 0 0 0 0 0 0 
0 0 0 0 0 0 0 0 0 
0 0 0 0 0 0 0 0 0 
0 0 0 0 0 0 0 0 0 
0 0 0 0 0 0 0 0 0.16952360605 
0.11853013776 0.073348227072 0.049873687556 0.039487116113 0.032710256627 0.026879930648 0.023164388702 0.020023029609 0.017487210441 
0.013762189489 0.0083722745548 0.0051107139501 0.0060857009977 0.0038979864314 0.00072965263906 0 0 0 
0 0 0 0 0 0 0 0 0 
0 0 0 0 0 0 0 0 0 
0 0 0 0 0 0 0 0 0 
0 0 0 0 -0.049104157047 0 -0.0034903966672 0 0 
0 0 0 0 0 0 0 0 0 
0 0 0 -0.061797725982 0 -0.0053886407253 0 0 -0.0068756670745 
0 0 0 0 0 0 0 -0.012598827065 -0.00052311929909 
0 0 0 -0.0044411849071 0 0 0 0 0 
-0.0014540184938 -0.0025105700488 0 0 0 0 0 -0.01680115487 0.092683032855 
0.025326199267 0 0.35627444125 0 0.081452697423 0 0 0 0 
0 0 -0.01033945449 -0.010423771267 -0.0022978515771 0 0 0 0 
0 0 0 0 0.016558685873 -0.0036533420128 0.036618752915 -0.0037870146118 -0.00083334146566 
0 0 0 0 0 0 0 0 0 
0 0 0 0 0 0 -0.00019713434582 0.071335236308 0.59045470943 
0.2151883885 0.29809156458 -0.0021679304505 -0.015469962717 0 0 0 0 0 
0.27396767196 0.11867938705 0.26721842141 0.3513925281 0.095110005627 0.27517009491 0.18211755151 0 0 
0 0 0 0 -0.0044766312045 0 0 0 0 
0 0 0.41110896872 0.88416500624 0.84354089142 0.75280244313 0.48556820319 0.80202643585 0.36179188105 
0 0 0 0 0 0 0 0 0 
0.056319133185 0.004612917814 0.023665451168 0.0023224698797 -0.00052620809928 0.0021327217596 -0.00024059763794 0 0 
0 0 0 0 0 0 -0.014285400667 0 0 
-0.0068623786939 0.094488145538 0.17676608784 0.12306673467 0.037316446033 0.080129455247 0.022363473564 0.012091998599 0.020408524112 
0.0040401238951 0.0092951295883 0.015286428028 -0.0038980767234 0.0036538460095 0.0056967079852 -0.0025717512332 0.001475162991 0.0043819973269 
-0.0024888093861 0.00011543860302 0.0020945365089 -0.00053079979305 0.00015299253529 0.00095019540906 -0.00014950951884 0 0 
0 0 0 0 0 0 0 0 0 
0 0 0 0 0 0 0 0 0 
0 0 0 0 0 0 0 0 0 
0 0 0 0 0 0 0 0 0 
0 0 0 0 0 0 0 0 0 
0 0 0 0 0 0 0 0 0 
0 0.14884982784 0.087439102698 0.15496394062 0.4873498993 0.2861720694 0.30754825083 0.2260107159 0.091838890249 
0.091074905021 0.055871878114 0.033261075682 0.010574114269 0.042137030961 0.025714375424 -0.010822161294 0.015935756248 0.010121004028 
-0.0070481346555 0.011831831304 0.0042343125708 -0.0067707464911 0.0057405166303 0.00031183963824 -0.0014366529119 0.0026577556046 0.00041438471211 
-0.00041511160594 0 0 0 0 0 0 0 0 
0 0 0 0 0 0 0 0 0 
0 0 0 0 0 0 0 0 0 
0 0 0 0 0 0 0 0 0 
0 0 0 0 0 0 0 0 0 
0 0 0 0 0 0 0 0 0 
0 0 0 0 0 0 0 0 0 
0 0 0 0 0 0 0 0 0 
0 0 0 0 0 0 0 0 0 
0 0 0 0 0 0 0 0 0 
0 0 0 0 0 0 0 0 0 
0 0 -0.003979089122 0.015659830942 -0.016130491913 0.078614180265 0.0075561098405 0.089688357414 0.077813520005 
0 0 0 0 0 0 0 0 -0.00040831308464 
0 -0.00089985236561 0.0072730731281 0.0034759949902 0.0058572659453 0.0046318959226 0.014386643322 0 0 
0 0 0 0 0 0 0 0 0 
0 0 0 0 0 0 0 0 0 
0 0 0 0 0 0 0 0 0 
0 0 0 0 0 0 0 0 0 
0 0 0 0 0 0 0 0 0 
0 0 0 0 0 0 0 0 0 
0 0 0 0 0 0 0 0 0 
0 0 0 0 0 0 0 0 0 
0 0 0 0 0 0 0 0 0 
0 0 0 0 0 0 0 0 0 
0 0 0 0 0 0 -0.00039020411317 0.017632099299 0.24168673076 
0.087237008606 0.017595399823 0.086609824974 0 0 0 0 0 0 
0.82576837654 0.15076395289 -0.0038393902764 0 0 0 0 0 0 
0.71641734911 1.1324768765 1.2458266994 1.1618117076 0.68885896773 0 -0.0027865072263 0 0.32707857043 
0.075586664431 0.041693813292 0.46351259052 -0.00079848860808 0 0.08810676983 0.28747176562 0 0.23084487965 
0.080216691018 0.59492086071 0.11661696108 0.057090578548 0.035884329127 0.017224903161 0.00076403715559 0 0 
0 0 0 0 0 0 0 0 0 
0 0 0 0 0 0.006139815395 1.1134653818 0 1.0991010713 
0 0.78550302228 0.49784875668 0.93219733597 0.74971458791 0.30057462166 0.19759619302 0.41453642974 0.1409906515 
0.10303015707 0.16587433975 0.088604222752 0.077267762969 0.097805168519 0.065776365422 0.054870938501 0.070405624624 0.042846222498 
0.033119993899 0.050783660079 0.031307684149 0.023206056231 0.032280971603 0.0082832622674 0.0042684477063 0.015951768108 0.005353067344 
2.7233497598e-05 0.004506304363 0 0 0 0 0 0 0 
0 0 0 0 0 0 0 0 0 
0 0 0 0 0 0 0 0 0 
0 0 0 0 0 0 0 0 0 
0 0 0 0 0 0 0 0 0 
0 0 0 0 0 0 0 0 0 
0 0.51728086193 0.18273220956 0.33647179142 0.10914102071 0.13472994225 0.074105800622 0.08966824906 0.055032754898 
0.063809687041 0.038422348547 0.048174913578 0.014340195456 0.023351447864 0.010675795339 0.016767629845 0 0.0020022320778 
0 0 0 0 0 0 0 0 0 
0 0 0 0 0 0 0 0 0 
0 0 0 0 0 0 0 0 0 
0 0 0 0 0 0 0 0 0 
0 0 0 0 0 0 0 0 0 
0 0 0 0 0 0 0 0 0 
0 0 0 0 0 0 0 0 0 
0 0 0 0 0 0 0 0 0 
0 0 0 0 0 0 0 0 0 
0 0 0 0 0 0 0 0 0 
0 0 0 0 0 0 0 0 0 
0 0 0 0 0 0 0 0 0 
0 0 0 0 0 0 0 0 0 
0 0 0 0 0 0 0 0 0 
0 0 0 0 -0.00047322630715 0 0 0 0 
0 0 0 0 0 0 0 0 0 
0 0 0 0 0 0 0 0 0 
0 0 0 0 0 0 0 0 0 
0 0 0 0 0 0 0 0 0 
0 0 0 0 0 0 0 0 0 
0 0 0 0 -0.025211205664 -0.0020843385063 -0.004164391503 -0.025265614962 0 
-0.0020800529967 0 0 0 0 0 0 0 0 
0 0 0 0 0 0 0 0 0 
0 0 0 0 0 0 0 0 0 
0 0 0 0 0 0 0 0 0 
0 0 0 0 0 0 0 0 0 
0 0 0 0 0 0 0 0 0 
0 0 0 0.01734794883 0 0.009085432081 0 0 0.0173364622 
0 0 0 0 0 0 0 0 0 
0 0 0 0 0 0 0 0 0 
0 0 0 0 0 0 0 0 0 
0 0 0 0 0 0 0 0 0 
0 0 0 0 0 0 0 0 0 
0 0 0 0 0 0 0 0 0 
0 0 0 0 0 0 0 0 0 
0 0 0 0 0 0 0 0 0 
0 0 0 0 0 0 0 0 0 
0 0 0 0 0 0 0 0 0 
0 0 0 0 0 0 0 0 0 
0 0 0 0 0 0 0 0 0 
0 0 0 0 0 0 0 0 0 
0 0 0 0 0 0 0 0 0 
0 0 0 0 0 0 0 0 0 
0 0 0 0 0 0 0 0 0 
0 0 0 0 0 0 0 0 0 
0 0 0 0 0 0 0 0 0 
0 0 0 0 0 0 0 0 0 
0 0 0 0 0 0 0 0 0 
0 0 0 0 0 0 0 0 0 
0 0 -3.9211759361e-05 -0.00029570151873 0 0 0 0 0 
0 0 0 0 0 0 0 0 0 
0 0 0 0 0 0 0 0 0 
0 0 0 0 0 0 0 0 0 
0 0 0 0 0 0 0 0 0 
0 0 0 0 0 0 0 0 0 
0 0 0 0 0 0 0 0 0 
0 0 0 0 0 0 0 0 0 
0 0 0 0 0 0 0 0 0 
0 0 0 0 0 0 0 0 0 
0 0 0 0 0 0 0 0 0.027155198436 
0.26716056607 0.60039060505 0.099341155384 0.23507429787 0 0 0 0 0 
0 0 0 0 0 0 0 0 0 
0 0.052618192337 0.097142892998 0.077829368222 0 -0.0015491158597 0 -0.0021821645439 0 
0 0 0 0 0 0 0 0 0.24983536139 
0.42845041091 0.13209211202 0.28297793081 0.1244494241 0 0 0 0 0 
0 0 0 0 0 0 0 0 0 
0 0 -0.031510014948 -0.0031105948165 0 0 0 0 0 
0 0 0 0 0 0 0 0 0 
0 0 0 0 0 0 0 0 0 
0 0 0 0 0 0 0 0 0 
0 0.020711008718 0.039135131386 0.030745849652 0.0076874323962 0 0 0 0 
0 0.00012557055405 0.0010986623388 0.00029653986821 0.0011439397081 -0.00035083372457 0 0 0 
0 0 0 0 0.015515515914 0.011793581339 0.018193957594 -0.0016362080796 0.0066385301904 
0.010199627863 0.0083305287341 -0.0035327550073 0.0033195616392 0.0031169726256 -0.0012081701321 0.00099804375363 0 -3.8773050307e-05 
0 0 0 0 0 0 0 0 0 
0 0 0 0 0 0.0038991378919 0.0062383066006 -0.002661337932 0 
0 0 0 0.101592136 0.056486379824 0.084678293544 0.023565984833 0.043111713839 0.031946823729 
-0.0041805695736 0.049321129416 0 0 0 0 0 0.00020304038731 0 
-5.8557129787e-05 0 0 0 0 0 0.010533680538 0.018010619548 -0.0072274264907 
0.016868599894 0.0084601396675 0 0 0 0 0 0 0 
0 0 0 0 0 0 0.0005714871899 -0.00011723015062 -0.00016564558851 
0 0.00078634717795 0.00032934062267 0.0030487331369 -0.00094592858594 0.0031720368905 0 0 0 
0 0 0 0 0 0 0 0 0 
0 0 0 0 0 0 0 0.027743885376 0.022423622876 
-0.0098198154362 0 0 0 0 0 0 0 0 
0 0 0.0088841898214 0.0027598078413 -0.0032505650662 0 0 0 0 
0 0 0 0 0 0 0 0 0 
0 0 0 0 0 0 0 0 0 
0 0 0 0 -0.0024967522997 0 0 -0.0052082182262 0 
0 0 0 0 0.083152562976 0.0046111028871 0.28548031463 0.067411886146 0 
0.018710619652 0.018675563543 0.065334436303 0.16760950094 0.1100294694 0 0 0 0 
0 0 0 0 0 0 0 0 0 
0 0 0 0 0.09285882601 0 0 0.48635590642 0.0060769171192 
0.11704084499 -0.019406520155 0 0 0 0 0 0 0 
0 0 0 -0.0084542278029 -0.0066569872904 0 0 -0.018825875333 0 
0 0 0 0 -0.043653074655 0.37442228512 0.11689075492 0 0 
0 0 0 0 0 0 0 0 0 
0 0 0 0 0 0.00063017392577 0 0.0091383031096 -0.0016610881234 
0.033249560975 0 0 -0.0047230097162 0.041105811326 0 0 0.00014495314733 0 
0 0 0 0 0 0 0 0 0 
0 0 0 0 0 0 0 0.016336734473 -0.0024634548539 
0 0 0 0 0 0 0.0083327350974 -0.0010200364798 0 
0 0 0 0 0 0 0 0 0 
0 0 0 0 0 0 0 0 0 
0 0 5.6996771582e-05 0 0 0 -0.0018525817488 0.015480034463 0 
0 0.0031290158224 -0.00039384336643 0.0060735113772 -0.00092535967983 0 0 0 0 
0.024834010739 -0.0044880600198 0 0 0 0 0.0017563676551 0 0 
0 0.10092099129 0.0078789026867 0 0 0 0 0 0 
0 0 0 0 0 0 0 0 -0.068347818091 
0.24741249572 0.52952128014 0 0 0 0 0 0.054367817313 -0.014410447052 
0 0.040420629348 0 0 0.002321968366 0.094883817311 0.21720617546 0 0.090289808963 
0 0.62420528871 0.17751383539 -0.064928824566 0.15835447886 0.15913899547 0.35668642032 0 0 
0 0 0 0 0 0 0 0.42564167953 0.099525673396 
0 0 0 0 0 0.074041964333 0 0 0 
0 0 0 0.020626147007 0 0 0 0 0 
0 0 0 0 0 0 0 0 0 
0 0 0 0 0 0 0 0 0 
0 0 0 0 0 0 0 0 0 
0 0 0 0 0 0 0 0 0 
0 0 0 0 0 0 0 0 0 
0 0 0 0 0 0 0 0 0 
0 0 0 0 0 0 0 0 0 
0 0 0 0 0 0 0 0 0 
0 0 0 0 0 0 0 0 0 
0 0 0 0 0 0 0 0 0 
0 0 0 0 0 0 0 0 0 
0 0 0 0 0 0 0 0 0.5745158247 
0.79649564677 0 0 0 0 -0.0029750021493 -0.0018610048505 0.04981511182 0.16428201946 
0.13812516771 0 -0.0051430624147 0 0 0 0 0 0 
0 0 0 0 0 0 0 -0.0018377309197 -0.0011277457898 
0 -0.0080612405831 0 0 0 0 0.023900381287 -0.0017145730795 0 
0 0 0.0020483729577 0.011737522263 0.013416848301 0.015271324302 -0.0027973616561 0.3955023848 0.20201771385 
0.27082667983 0.34694505735 0.26278416481 -0.0090135676164 0 0 0 0.98381393609 0.87772123733 
0.94949014166 1.0367039624 0 0 0.28575763549 0 0 0 0 
0.037904524699 0 0 0 0.85095392115 0 0 0.039540617608 0.28882478492 
0 0.27686216982 0.33094203952 0 0 0 0 0 0 
0.21787328998 0 0 0 0 
